*Heading
 Geometry-only visible roll/electrode assembly
** Job name: visible_roll_electrode Model name: visible_roll_electrode
** Generated by: Abaqus/CAE 2025
*Preprint, echo=NO, model=NO, history=NO, contact=NO
**
** PARTS
**
*Part, name=P_COATING
*Node
      1,         650., 0.0250000004,          60.
      2,           0., 0.0250000004,          60.
      3,           0.,           0.,          60.
      4,         650.,           0.,          60.
      5,         650., 0.0250000004,          50.
      6,           0., 0.0250000004,          50.
      7,           0.,           0.,          50.
      8,         650.,           0.,          50.
      9,         650., 0.0500000007,          60.
     10,         650.,  0.075000003,          60.
     11,           0.,  0.075000003,          60.
     12,           0., 0.0500000007,          60.
     13,         650., 0.0500000007,          50.
     14,         650.,  0.075000003,          50.
     15,           0.,  0.075000003,          50.
     16,           0., 0.0500000007,          50.
     17,         650., 0.0250000004,          80.
     18,           0., 0.0250000004,          80.
     19,           0.,           0.,          80.
     20,         650.,           0.,          80.
     21,         650., 0.0500000007,          80.
     22,         650.,  0.075000003,          80.
     23,           0.,  0.075000003,          80.
     24,           0., 0.0500000007,          80.
     25,         650., 0.0500000007,          45.
     26,           0., 0.0500000007,          45.
     27,           0., 0.0250000004,          45.
     28,         650., 0.0250000004,          45.
     29,         650.,  0.075000003,          45.
     30,           0.,  0.075000003,          45.
     31,           0., 0.0250000004,          42.
     32,           0.,           0.,          42.
     33,         650.,           0.,          42.
     34,         650., 0.0250000004,          42.
     35,           0.,           0.,          45.
     36,         650.,           0.,          45.
     37,         650., 0.0500000007,          42.
     38,           0., 0.0500000007,          42.
     39,         650.,  0.075000003,          42.
     40,           0.,  0.075000003,          42.
     41,           0., 0.0500000007,          40.
     42,         650., 0.0500000007,          40.
     43,         650.,  0.075000003,          40.
     44,           0.,  0.075000003,          40.
     45,           0., 0.0250000004,          40.
     46,           0.,           0.,          40.
     47,         650.,           0.,          40.
     48,         650., 0.0250000004,          40.
     49,         650., 0.0250000004,          38.
     50,         650., 0.0500000007,          38.
     51,           0., 0.0500000007,          38.
     52,           0., 0.0250000004,          38.
     53,           0.,           0.,          38.
     54,         650.,           0.,          38.
     55,         650.,  0.075000003,          38.
     56,           0.,  0.075000003,          38.
     57,           0., 0.0500000007,          35.
     58,         650., 0.0500000007,          35.
     59,         650.,  0.075000003,          35.
     60,           0.,  0.075000003,          35.
     61,         650., 0.0250000004,          35.
     62,           0., 0.0250000004,          35.
     63,         650., 0.0250000004,          30.
     64,           0., 0.0250000004,          30.
     65,           0.,           0.,          30.
     66,         650.,           0.,          30.
     67,           0.,           0.,          35.
     68,         650.,           0.,          35.
     69,           0.,  0.075000003,          30.
     70,           0., 0.0500000007,          30.
     71,         650., 0.0500000007,          30.
     72,         650.,  0.075000003,          30.
     73,         650., 0.0500000007,          20.
     74,           0., 0.0500000007,          20.
     75,           0., 0.0250000004,          20.
     76,         650., 0.0250000004,          20.
     77,           0.,  0.075000003,          20.
     78,         650.,  0.075000003,          20.
     79,           0., 0.0250000004,           0.
     80,         650., 0.0250000004,           0.
     81,         650.,           0.,           0.
     82,           0.,           0.,           0.
     83,         650.,           0.,          20.
     84,           0.,           0.,          20.
     85,           0., 0.0500000007,           0.
     86,         650., 0.0500000007,           0.
     87,           0.,  0.075000003,           0.
     88,         650.,  0.075000003,           0.
     89,         625., 0.0250000004,          60.
     90,         600., 0.0250000004,          60.
     91,         575., 0.0250000004,          60.
     92,         550., 0.0250000004,          60.
     93,         525., 0.0250000004,          60.
     94,         500., 0.0250000004,          60.
     95,         475., 0.0250000004,          60.
     96,         450., 0.0250000004,          60.
     97,         425., 0.0250000004,          60.
     98,         400., 0.0250000004,          60.
     99,         375., 0.0250000004,          60.
    100,         350., 0.0250000004,          60.
    101,         325., 0.0250000004,          60.
    102,         300., 0.0250000004,          60.
    103,         275., 0.0250000004,          60.
    104,         250., 0.0250000004,          60.
    105,         225., 0.0250000004,          60.
    106,         200., 0.0250000004,          60.
    107,         175., 0.0250000004,          60.
    108,         150., 0.0250000004,          60.
    109,         125., 0.0250000004,          60.
    110,         100., 0.0250000004,          60.
    111,          75., 0.0250000004,          60.
    112,          50., 0.0250000004,          60.
    113,          25., 0.0250000004,          60.
    114,          25.,           0.,          60.
    115,          50.,           0.,          60.
    116,          75.,           0.,          60.
    117,         100.,           0.,          60.
    118,         125.,           0.,          60.
    119,         150.,           0.,          60.
    120,         175.,           0.,          60.
    121,         200.,           0.,          60.
    122,         225.,           0.,          60.
    123,         250.,           0.,          60.
    124,         275.,           0.,          60.
    125,         300.,           0.,          60.
    126,         325.,           0.,          60.
    127,         350.,           0.,          60.
    128,         375.,           0.,          60.
    129,         400.,           0.,          60.
    130,         425.,           0.,          60.
    131,         450.,           0.,          60.
    132,         475.,           0.,          60.
    133,         500.,           0.,          60.
    134,         525.,           0.,          60.
    135,         550.,           0.,          60.
    136,         575.,           0.,          60.
    137,         600.,           0.,          60.
    138,         625.,           0.,          60.
    139,         625., 0.0250000004,          50.
    140,         600., 0.0250000004,          50.
    141,         575., 0.0250000004,          50.
    142,         550., 0.0250000004,          50.
    143,         525., 0.0250000004,          50.
    144,         500., 0.0250000004,          50.
    145,         475., 0.0250000004,          50.
    146,         450., 0.0250000004,          50.
    147,         425., 0.0250000004,          50.
    148,         400., 0.0250000004,          50.
    149,         375., 0.0250000004,          50.
    150,         350., 0.0250000004,          50.
    151,         325., 0.0250000004,          50.
    152,         300., 0.0250000004,          50.
    153,         275., 0.0250000004,          50.
    154,         250., 0.0250000004,          50.
    155,         225., 0.0250000004,          50.
    156,         200., 0.0250000004,          50.
    157,         175., 0.0250000004,          50.
    158,         150., 0.0250000004,          50.
    159,         125., 0.0250000004,          50.
    160,         100., 0.0250000004,          50.
    161,          75., 0.0250000004,          50.
    162,          50., 0.0250000004,          50.
    163,          25., 0.0250000004,          50.
    164,          25.,           0.,          50.
    165,          50.,           0.,          50.
    166,          75.,           0.,          50.
    167,         100.,           0.,          50.
    168,         125.,           0.,          50.
    169,         150.,           0.,          50.
    170,         175.,           0.,          50.
    171,         200.,           0.,          50.
    172,         225.,           0.,          50.
    173,         250.,           0.,          50.
    174,         275.,           0.,          50.
    175,         300.,           0.,          50.
    176,         325.,           0.,          50.
    177,         350.,           0.,          50.
    178,         375.,           0.,          50.
    179,         400.,           0.,          50.
    180,         425.,           0.,          50.
    181,         450.,           0.,          50.
    182,         475.,           0.,          50.
    183,         500.,           0.,          50.
    184,         525.,           0.,          50.
    185,         550.,           0.,          50.
    186,         575.,           0.,          50.
    187,         600.,           0.,          50.
    188,         625.,           0.,          50.
    189,         625.,  0.075000003,          60.
    190,         600.,  0.075000003,          60.
    191,         575.,  0.075000003,          60.
    192,         550.,  0.075000003,          60.
    193,         525.,  0.075000003,          60.
    194,         500.,  0.075000003,          60.
    195,         475.,  0.075000003,          60.
    196,         450.,  0.075000003,          60.
    197,         425.,  0.075000003,          60.
    198,         400.,  0.075000003,          60.
    199,         375.,  0.075000003,          60.
    200,         350.,  0.075000003,          60.
    201,         325.,  0.075000003,          60.
    202,         300.,  0.075000003,          60.
    203,         275.,  0.075000003,          60.
    204,         250.,  0.075000003,          60.
    205,         225.,  0.075000003,          60.
    206,         200.,  0.075000003,          60.
    207,         175.,  0.075000003,          60.
    208,         150.,  0.075000003,          60.
    209,         125.,  0.075000003,          60.
    210,         100.,  0.075000003,          60.
    211,          75.,  0.075000003,          60.
    212,          50.,  0.075000003,          60.
    213,          25.,  0.075000003,          60.
    214,          25., 0.0500000007,          60.
    215,          50., 0.0500000007,          60.
    216,          75., 0.0500000007,          60.
    217,         100., 0.0500000007,          60.
    218,         125., 0.0500000007,          60.
    219,         150., 0.0500000007,          60.
    220,         175., 0.0500000007,          60.
    221,         200., 0.0500000007,          60.
    222,         225., 0.0500000007,          60.
    223,         250., 0.0500000007,          60.
    224,         275., 0.0500000007,          60.
    225,         300., 0.0500000007,          60.
    226,         325., 0.0500000007,          60.
    227,         350., 0.0500000007,          60.
    228,         375., 0.0500000007,          60.
    229,         400., 0.0500000007,          60.
    230,         425., 0.0500000007,          60.
    231,         450., 0.0500000007,          60.
    232,         475., 0.0500000007,          60.
    233,         500., 0.0500000007,          60.
    234,         525., 0.0500000007,          60.
    235,         550., 0.0500000007,          60.
    236,         575., 0.0500000007,          60.
    237,         600., 0.0500000007,          60.
    238,         625., 0.0500000007,          60.
    239,         625.,  0.075000003,          50.
    240,         600.,  0.075000003,          50.
    241,         575.,  0.075000003,          50.
    242,         550.,  0.075000003,          50.
    243,         525.,  0.075000003,          50.
    244,         500.,  0.075000003,          50.
    245,         475.,  0.075000003,          50.
    246,         450.,  0.075000003,          50.
    247,         425.,  0.075000003,          50.
    248,         400.,  0.075000003,          50.
    249,         375.,  0.075000003,          50.
    250,         350.,  0.075000003,          50.
    251,         325.,  0.075000003,          50.
    252,         300.,  0.075000003,          50.
    253,         275.,  0.075000003,          50.
    254,         250.,  0.075000003,          50.
    255,         225.,  0.075000003,          50.
    256,         200.,  0.075000003,          50.
    257,         175.,  0.075000003,          50.
    258,         150.,  0.075000003,          50.
    259,         125.,  0.075000003,          50.
    260,         100.,  0.075000003,          50.
    261,          75.,  0.075000003,          50.
    262,          50.,  0.075000003,          50.
    263,          25.,  0.075000003,          50.
    264,          25., 0.0500000007,          50.
    265,          50., 0.0500000007,          50.
    266,          75., 0.0500000007,          50.
    267,         100., 0.0500000007,          50.
    268,         125., 0.0500000007,          50.
    269,         150., 0.0500000007,          50.
    270,         175., 0.0500000007,          50.
    271,         200., 0.0500000007,          50.
    272,         225., 0.0500000007,          50.
    273,         250., 0.0500000007,          50.
    274,         275., 0.0500000007,          50.
    275,         300., 0.0500000007,          50.
    276,         325., 0.0500000007,          50.
    277,         350., 0.0500000007,          50.
    278,         375., 0.0500000007,          50.
    279,         400., 0.0500000007,          50.
    280,         425., 0.0500000007,          50.
    281,         450., 0.0500000007,          50.
    282,         475., 0.0500000007,          50.
    283,         500., 0.0500000007,          50.
    284,         525., 0.0500000007,          50.
    285,         550., 0.0500000007,          50.
    286,         575., 0.0500000007,          50.
    287,         600., 0.0500000007,          50.
    288,         625., 0.0500000007,          50.
    289,         625., 0.0250000004,          80.
    290,         600., 0.0250000004,          80.
    291,         575., 0.0250000004,          80.
    292,         550., 0.0250000004,          80.
    293,         525., 0.0250000004,          80.
    294,         500., 0.0250000004,          80.
    295,         475., 0.0250000004,          80.
    296,         450., 0.0250000004,          80.
    297,         425., 0.0250000004,          80.
    298,         400., 0.0250000004,          80.
    299,         375., 0.0250000004,          80.
    300,         350., 0.0250000004,          80.
    301,         325., 0.0250000004,          80.
    302,         300., 0.0250000004,          80.
    303,         275., 0.0250000004,          80.
    304,         250., 0.0250000004,          80.
    305,         225., 0.0250000004,          80.
    306,         200., 0.0250000004,          80.
    307,         175., 0.0250000004,          80.
    308,         150., 0.0250000004,          80.
    309,         125., 0.0250000004,          80.
    310,         100., 0.0250000004,          80.
    311,          75., 0.0250000004,          80.
    312,          50., 0.0250000004,          80.
    313,          25., 0.0250000004,          80.
    314,          25.,           0.,          80.
    315,          50.,           0.,          80.
    316,          75.,           0.,          80.
    317,         100.,           0.,          80.
    318,         125.,           0.,          80.
    319,         150.,           0.,          80.
    320,         175.,           0.,          80.
    321,         200.,           0.,          80.
    322,         225.,           0.,          80.
    323,         250.,           0.,          80.
    324,         275.,           0.,          80.
    325,         300.,           0.,          80.
    326,         325.,           0.,          80.
    327,         350.,           0.,          80.
    328,         375.,           0.,          80.
    329,         400.,           0.,          80.
    330,         425.,           0.,          80.
    331,         450.,           0.,          80.
    332,         475.,           0.,          80.
    333,         500.,           0.,          80.
    334,         525.,           0.,          80.
    335,         550.,           0.,          80.
    336,         575.,           0.,          80.
    337,         600.,           0.,          80.
    338,         625.,           0.,          80.
    339,         625.,  0.075000003,          80.
    340,         600.,  0.075000003,          80.
    341,         575.,  0.075000003,          80.
    342,         550.,  0.075000003,          80.
    343,         525.,  0.075000003,          80.
    344,         500.,  0.075000003,          80.
    345,         475.,  0.075000003,          80.
    346,         450.,  0.075000003,          80.
    347,         425.,  0.075000003,          80.
    348,         400.,  0.075000003,          80.
    349,         375.,  0.075000003,          80.
    350,         350.,  0.075000003,          80.
    351,         325.,  0.075000003,          80.
    352,         300.,  0.075000003,          80.
    353,         275.,  0.075000003,          80.
    354,         250.,  0.075000003,          80.
    355,         225.,  0.075000003,          80.
    356,         200.,  0.075000003,          80.
    357,         175.,  0.075000003,          80.
    358,         150.,  0.075000003,          80.
    359,         125.,  0.075000003,          80.
    360,         100.,  0.075000003,          80.
    361,          75.,  0.075000003,          80.
    362,          50.,  0.075000003,          80.
    363,          25.,  0.075000003,          80.
    364,          25., 0.0500000007,          80.
    365,          50., 0.0500000007,          80.
    366,          75., 0.0500000007,          80.
    367,         100., 0.0500000007,          80.
    368,         125., 0.0500000007,          80.
    369,         150., 0.0500000007,          80.
    370,         175., 0.0500000007,          80.
    371,         200., 0.0500000007,          80.
    372,         225., 0.0500000007,          80.
    373,         250., 0.0500000007,          80.
    374,         275., 0.0500000007,          80.
    375,         300., 0.0500000007,          80.
    376,         325., 0.0500000007,          80.
    377,         350., 0.0500000007,          80.
    378,         375., 0.0500000007,          80.
    379,         400., 0.0500000007,          80.
    380,         425., 0.0500000007,          80.
    381,         450., 0.0500000007,          80.
    382,         475., 0.0500000007,          80.
    383,         500., 0.0500000007,          80.
    384,         525., 0.0500000007,          80.
    385,         550., 0.0500000007,          80.
    386,         575., 0.0500000007,          80.
    387,         600., 0.0500000007,          80.
    388,         625., 0.0500000007,          80.
    389,         625., 0.0500000007,          45.
    390,         600., 0.0500000007,          45.
    391,         575., 0.0500000007,          45.
    392,         550., 0.0500000007,          45.
    393,         525., 0.0500000007,          45.
    394,         500., 0.0500000007,          45.
    395,         475., 0.0500000007,          45.
    396,         450., 0.0500000007,          45.
    397,         425., 0.0500000007,          45.
    398,         400., 0.0500000007,          45.
    399,         375., 0.0500000007,          45.
    400,         350., 0.0500000007,          45.
    401,         325., 0.0500000007,          45.
    402,         300., 0.0500000007,          45.
    403,         275., 0.0500000007,          45.
    404,         250., 0.0500000007,          45.
    405,         225., 0.0500000007,          45.
    406,         200., 0.0500000007,          45.
    407,         175., 0.0500000007,          45.
    408,         150., 0.0500000007,          45.
    409,         125., 0.0500000007,          45.
    410,         100., 0.0500000007,          45.
    411,          75., 0.0500000007,          45.
    412,          50., 0.0500000007,          45.
    413,          25., 0.0500000007,          45.
    414,          25., 0.0250000004,          45.
    415,          50., 0.0250000004,          45.
    416,          75., 0.0250000004,          45.
    417,         100., 0.0250000004,          45.
    418,         125., 0.0250000004,          45.
    419,         150., 0.0250000004,          45.
    420,         175., 0.0250000004,          45.
    421,         200., 0.0250000004,          45.
    422,         225., 0.0250000004,          45.
    423,         250., 0.0250000004,          45.
    424,         275., 0.0250000004,          45.
    425,         300., 0.0250000004,          45.
    426,         325., 0.0250000004,          45.
    427,         350., 0.0250000004,          45.
    428,         375., 0.0250000004,          45.
    429,         400., 0.0250000004,          45.
    430,         425., 0.0250000004,          45.
    431,         450., 0.0250000004,          45.
    432,         475., 0.0250000004,          45.
    433,         500., 0.0250000004,          45.
    434,         525., 0.0250000004,          45.
    435,         550., 0.0250000004,          45.
    436,         575., 0.0250000004,          45.
    437,         600., 0.0250000004,          45.
    438,         625., 0.0250000004,          45.
    439,         625.,  0.075000003,          45.
    440,         600.,  0.075000003,          45.
    441,         575.,  0.075000003,          45.
    442,         550.,  0.075000003,          45.
    443,         525.,  0.075000003,          45.
    444,         500.,  0.075000003,          45.
    445,         475.,  0.075000003,          45.
    446,         450.,  0.075000003,          45.
    447,         425.,  0.075000003,          45.
    448,         400.,  0.075000003,          45.
    449,         375.,  0.075000003,          45.
    450,         350.,  0.075000003,          45.
    451,         325.,  0.075000003,          45.
    452,         300.,  0.075000003,          45.
    453,         275.,  0.075000003,          45.
    454,         250.,  0.075000003,          45.
    455,         225.,  0.075000003,          45.
    456,         200.,  0.075000003,          45.
    457,         175.,  0.075000003,          45.
    458,         150.,  0.075000003,          45.
    459,         125.,  0.075000003,          45.
    460,         100.,  0.075000003,          45.
    461,          75.,  0.075000003,          45.
    462,          50.,  0.075000003,          45.
    463,          25.,  0.075000003,          45.
    464,          25.,           0.,          42.
    465,          50.,           0.,          42.
    466,          75.,           0.,          42.
    467,         100.,           0.,          42.
    468,         125.,           0.,          42.
    469,         150.,           0.,          42.
    470,         175.,           0.,          42.
    471,         200.,           0.,          42.
    472,         225.,           0.,          42.
    473,         250.,           0.,          42.
    474,         275.,           0.,          42.
    475,         300.,           0.,          42.
    476,         325.,           0.,          42.
    477,         350.,           0.,          42.
    478,         375.,           0.,          42.
    479,         400.,           0.,          42.
    480,         425.,           0.,          42.
    481,         450.,           0.,          42.
    482,         475.,           0.,          42.
    483,         500.,           0.,          42.
    484,         525.,           0.,          42.
    485,         550.,           0.,          42.
    486,         575.,           0.,          42.
    487,         600.,           0.,          42.
    488,         625.,           0.,          42.
    489,         625., 0.0250000004,          42.
    490,         600., 0.0250000004,          42.
    491,         575., 0.0250000004,          42.
    492,         550., 0.0250000004,          42.
    493,         525., 0.0250000004,          42.
    494,         500., 0.0250000004,          42.
    495,         475., 0.0250000004,          42.
    496,         450., 0.0250000004,          42.
    497,         425., 0.0250000004,          42.
    498,         400., 0.0250000004,          42.
    499,         375., 0.0250000004,          42.
    500,         350., 0.0250000004,          42.
    501,         325., 0.0250000004,          42.
    502,         300., 0.0250000004,          42.
    503,         275., 0.0250000004,          42.
    504,         250., 0.0250000004,          42.
    505,         225., 0.0250000004,          42.
    506,         200., 0.0250000004,          42.
    507,         175., 0.0250000004,          42.
    508,         150., 0.0250000004,          42.
    509,         125., 0.0250000004,          42.
    510,         100., 0.0250000004,          42.
    511,          75., 0.0250000004,          42.
    512,          50., 0.0250000004,          42.
    513,          25., 0.0250000004,          42.
    514,          25.,           0.,          45.
    515,          50.,           0.,          45.
    516,          75.,           0.,          45.
    517,         100.,           0.,          45.
    518,         125.,           0.,          45.
    519,         150.,           0.,          45.
    520,         175.,           0.,          45.
    521,         200.,           0.,          45.
    522,         225.,           0.,          45.
    523,         250.,           0.,          45.
    524,         275.,           0.,          45.
    525,         300.,           0.,          45.
    526,         325.,           0.,          45.
    527,         350.,           0.,          45.
    528,         375.,           0.,          45.
    529,         400.,           0.,          45.
    530,         425.,           0.,          45.
    531,         450.,           0.,          45.
    532,         475.,           0.,          45.
    533,         500.,           0.,          45.
    534,         525.,           0.,          45.
    535,         550.,           0.,          45.
    536,         575.,           0.,          45.
    537,         600.,           0.,          45.
    538,         625.,           0.,          45.
    539,         625., 0.0500000007,          42.
    540,         600., 0.0500000007,          42.
    541,         575., 0.0500000007,          42.
    542,         550., 0.0500000007,          42.
    543,         525., 0.0500000007,          42.
    544,         500., 0.0500000007,          42.
    545,         475., 0.0500000007,          42.
    546,         450., 0.0500000007,          42.
    547,         425., 0.0500000007,          42.
    548,         400., 0.0500000007,          42.
    549,         375., 0.0500000007,          42.
    550,         350., 0.0500000007,          42.
    551,         325., 0.0500000007,          42.
    552,         300., 0.0500000007,          42.
    553,         275., 0.0500000007,          42.
    554,         250., 0.0500000007,          42.
    555,         225., 0.0500000007,          42.
    556,         200., 0.0500000007,          42.
    557,         175., 0.0500000007,          42.
    558,         150., 0.0500000007,          42.
    559,         125., 0.0500000007,          42.
    560,         100., 0.0500000007,          42.
    561,          75., 0.0500000007,          42.
    562,          50., 0.0500000007,          42.
    563,          25., 0.0500000007,          42.
    564,         625.,  0.075000003,          42.
    565,         600.,  0.075000003,          42.
    566,         575.,  0.075000003,          42.
    567,         550.,  0.075000003,          42.
    568,         525.,  0.075000003,          42.
    569,         500.,  0.075000003,          42.
    570,         475.,  0.075000003,          42.
    571,         450.,  0.075000003,          42.
    572,         425.,  0.075000003,          42.
    573,         400.,  0.075000003,          42.
    574,         375.,  0.075000003,          42.
    575,         350.,  0.075000003,          42.
    576,         325.,  0.075000003,          42.
    577,         300.,  0.075000003,          42.
    578,         275.,  0.075000003,          42.
    579,         250.,  0.075000003,          42.
    580,         225.,  0.075000003,          42.
    581,         200.,  0.075000003,          42.
    582,         175.,  0.075000003,          42.
    583,         150.,  0.075000003,          42.
    584,         125.,  0.075000003,          42.
    585,         100.,  0.075000003,          42.
    586,          75.,  0.075000003,          42.
    587,          50.,  0.075000003,          42.
    588,          25.,  0.075000003,          42.
    589,          25., 0.0500000007,          40.
    590,          50., 0.0500000007,          40.
    591,          75., 0.0500000007,          40.
    592,         100., 0.0500000007,          40.
    593,         125., 0.0500000007,          40.
    594,         150., 0.0500000007,          40.
    595,         175., 0.0500000007,          40.
    596,         200., 0.0500000007,          40.
    597,         225., 0.0500000007,          40.
    598,         250., 0.0500000007,          40.
    599,         275., 0.0500000007,          40.
    600,         300., 0.0500000007,          40.
    601,         325., 0.0500000007,          40.
    602,         350., 0.0500000007,          40.
    603,         375., 0.0500000007,          40.
    604,         400., 0.0500000007,          40.
    605,         425., 0.0500000007,          40.
    606,         450., 0.0500000007,          40.
    607,         475., 0.0500000007,          40.
    608,         500., 0.0500000007,          40.
    609,         525., 0.0500000007,          40.
    610,         550., 0.0500000007,          40.
    611,         575., 0.0500000007,          40.
    612,         600., 0.0500000007,          40.
    613,         625., 0.0500000007,          40.
    614,         625.,  0.075000003,          40.
    615,         600.,  0.075000003,          40.
    616,         575.,  0.075000003,          40.
    617,         550.,  0.075000003,          40.
    618,         525.,  0.075000003,          40.
    619,         500.,  0.075000003,          40.
    620,         475.,  0.075000003,          40.
    621,         450.,  0.075000003,          40.
    622,         425.,  0.075000003,          40.
    623,         400.,  0.075000003,          40.
    624,         375.,  0.075000003,          40.
    625,         350.,  0.075000003,          40.
    626,         325.,  0.075000003,          40.
    627,         300.,  0.075000003,          40.
    628,         275.,  0.075000003,          40.
    629,         250.,  0.075000003,          40.
    630,         225.,  0.075000003,          40.
    631,         200.,  0.075000003,          40.
    632,         175.,  0.075000003,          40.
    633,         150.,  0.075000003,          40.
    634,         125.,  0.075000003,          40.
    635,         100.,  0.075000003,          40.
    636,          75.,  0.075000003,          40.
    637,          50.,  0.075000003,          40.
    638,          25.,  0.075000003,          40.
    639,          25.,           0.,          40.
    640,          50.,           0.,          40.
    641,          75.,           0.,          40.
    642,         100.,           0.,          40.
    643,         125.,           0.,          40.
    644,         150.,           0.,          40.
    645,         175.,           0.,          40.
    646,         200.,           0.,          40.
    647,         225.,           0.,          40.
    648,         250.,           0.,          40.
    649,         275.,           0.,          40.
    650,         300.,           0.,          40.
    651,         325.,           0.,          40.
    652,         350.,           0.,          40.
    653,         375.,           0.,          40.
    654,         400.,           0.,          40.
    655,         425.,           0.,          40.
    656,         450.,           0.,          40.
    657,         475.,           0.,          40.
    658,         500.,           0.,          40.
    659,         525.,           0.,          40.
    660,         550.,           0.,          40.
    661,         575.,           0.,          40.
    662,         600.,           0.,          40.
    663,         625.,           0.,          40.
    664,         625., 0.0250000004,          40.
    665,         600., 0.0250000004,          40.
    666,         575., 0.0250000004,          40.
    667,         550., 0.0250000004,          40.
    668,         525., 0.0250000004,          40.
    669,         500., 0.0250000004,          40.
    670,         475., 0.0250000004,          40.
    671,         450., 0.0250000004,          40.
    672,         425., 0.0250000004,          40.
    673,         400., 0.0250000004,          40.
    674,         375., 0.0250000004,          40.
    675,         350., 0.0250000004,          40.
    676,         325., 0.0250000004,          40.
    677,         300., 0.0250000004,          40.
    678,         275., 0.0250000004,          40.
    679,         250., 0.0250000004,          40.
    680,         225., 0.0250000004,          40.
    681,         200., 0.0250000004,          40.
    682,         175., 0.0250000004,          40.
    683,         150., 0.0250000004,          40.
    684,         125., 0.0250000004,          40.
    685,         100., 0.0250000004,          40.
    686,          75., 0.0250000004,          40.
    687,          50., 0.0250000004,          40.
    688,          25., 0.0250000004,          40.
    689,         625., 0.0500000007,          38.
    690,         600., 0.0500000007,          38.
    691,         575., 0.0500000007,          38.
    692,         550., 0.0500000007,          38.
    693,         525., 0.0500000007,          38.
    694,         500., 0.0500000007,          38.
    695,         475., 0.0500000007,          38.
    696,         450., 0.0500000007,          38.
    697,         425., 0.0500000007,          38.
    698,         400., 0.0500000007,          38.
    699,         375., 0.0500000007,          38.
    700,         350., 0.0500000007,          38.
    701,         325., 0.0500000007,          38.
    702,         300., 0.0500000007,          38.
    703,         275., 0.0500000007,          38.
    704,         250., 0.0500000007,          38.
    705,         225., 0.0500000007,          38.
    706,         200., 0.0500000007,          38.
    707,         175., 0.0500000007,          38.
    708,         150., 0.0500000007,          38.
    709,         125., 0.0500000007,          38.
    710,         100., 0.0500000007,          38.
    711,          75., 0.0500000007,          38.
    712,          50., 0.0500000007,          38.
    713,          25., 0.0500000007,          38.
    714,          25., 0.0250000004,          38.
    715,          50., 0.0250000004,          38.
    716,          75., 0.0250000004,          38.
    717,         100., 0.0250000004,          38.
    718,         125., 0.0250000004,          38.
    719,         150., 0.0250000004,          38.
    720,         175., 0.0250000004,          38.
    721,         200., 0.0250000004,          38.
    722,         225., 0.0250000004,          38.
    723,         250., 0.0250000004,          38.
    724,         275., 0.0250000004,          38.
    725,         300., 0.0250000004,          38.
    726,         325., 0.0250000004,          38.
    727,         350., 0.0250000004,          38.
    728,         375., 0.0250000004,          38.
    729,         400., 0.0250000004,          38.
    730,         425., 0.0250000004,          38.
    731,         450., 0.0250000004,          38.
    732,         475., 0.0250000004,          38.
    733,         500., 0.0250000004,          38.
    734,         525., 0.0250000004,          38.
    735,         550., 0.0250000004,          38.
    736,         575., 0.0250000004,          38.
    737,         600., 0.0250000004,          38.
    738,         625., 0.0250000004,          38.
    739,          25.,           0.,          38.
    740,          50.,           0.,          38.
    741,          75.,           0.,          38.
    742,         100.,           0.,          38.
    743,         125.,           0.,          38.
    744,         150.,           0.,          38.
    745,         175.,           0.,          38.
    746,         200.,           0.,          38.
    747,         225.,           0.,          38.
    748,         250.,           0.,          38.
    749,         275.,           0.,          38.
    750,         300.,           0.,          38.
    751,         325.,           0.,          38.
    752,         350.,           0.,          38.
    753,         375.,           0.,          38.
    754,         400.,           0.,          38.
    755,         425.,           0.,          38.
    756,         450.,           0.,          38.
    757,         475.,           0.,          38.
    758,         500.,           0.,          38.
    759,         525.,           0.,          38.
    760,         550.,           0.,          38.
    761,         575.,           0.,          38.
    762,         600.,           0.,          38.
    763,         625.,           0.,          38.
    764,         625.,  0.075000003,          38.
    765,         600.,  0.075000003,          38.
    766,         575.,  0.075000003,          38.
    767,         550.,  0.075000003,          38.
    768,         525.,  0.075000003,          38.
    769,         500.,  0.075000003,          38.
    770,         475.,  0.075000003,          38.
    771,         450.,  0.075000003,          38.
    772,         425.,  0.075000003,          38.
    773,         400.,  0.075000003,          38.
    774,         375.,  0.075000003,          38.
    775,         350.,  0.075000003,          38.
    776,         325.,  0.075000003,          38.
    777,         300.,  0.075000003,          38.
    778,         275.,  0.075000003,          38.
    779,         250.,  0.075000003,          38.
    780,         225.,  0.075000003,          38.
    781,         200.,  0.075000003,          38.
    782,         175.,  0.075000003,          38.
    783,         150.,  0.075000003,          38.
    784,         125.,  0.075000003,          38.
    785,         100.,  0.075000003,          38.
    786,          75.,  0.075000003,          38.
    787,          50.,  0.075000003,          38.
    788,          25.,  0.075000003,          38.
    789,          25., 0.0500000007,          35.
    790,          50., 0.0500000007,          35.
    791,          75., 0.0500000007,          35.
    792,         100., 0.0500000007,          35.
    793,         125., 0.0500000007,          35.
    794,         150., 0.0500000007,          35.
    795,         175., 0.0500000007,          35.
    796,         200., 0.0500000007,          35.
    797,         225., 0.0500000007,          35.
    798,         250., 0.0500000007,          35.
    799,         275., 0.0500000007,          35.
    800,         300., 0.0500000007,          35.
    801,         325., 0.0500000007,          35.
    802,         350., 0.0500000007,          35.
    803,         375., 0.0500000007,          35.
    804,         400., 0.0500000007,          35.
    805,         425., 0.0500000007,          35.
    806,         450., 0.0500000007,          35.
    807,         475., 0.0500000007,          35.
    808,         500., 0.0500000007,          35.
    809,         525., 0.0500000007,          35.
    810,         550., 0.0500000007,          35.
    811,         575., 0.0500000007,          35.
    812,         600., 0.0500000007,          35.
    813,         625., 0.0500000007,          35.
    814,         625.,  0.075000003,          35.
    815,         600.,  0.075000003,          35.
    816,         575.,  0.075000003,          35.
    817,         550.,  0.075000003,          35.
    818,         525.,  0.075000003,          35.
    819,         500.,  0.075000003,          35.
    820,         475.,  0.075000003,          35.
    821,         450.,  0.075000003,          35.
    822,         425.,  0.075000003,          35.
    823,         400.,  0.075000003,          35.
    824,         375.,  0.075000003,          35.
    825,         350.,  0.075000003,          35.
    826,         325.,  0.075000003,          35.
    827,         300.,  0.075000003,          35.
    828,         275.,  0.075000003,          35.
    829,         250.,  0.075000003,          35.
    830,         225.,  0.075000003,          35.
    831,         200.,  0.075000003,          35.
    832,         175.,  0.075000003,          35.
    833,         150.,  0.075000003,          35.
    834,         125.,  0.075000003,          35.
    835,         100.,  0.075000003,          35.
    836,          75.,  0.075000003,          35.
    837,          50.,  0.075000003,          35.
    838,          25.,  0.075000003,          35.
    839,          25., 0.0250000004,          35.
    840,          50., 0.0250000004,          35.
    841,          75., 0.0250000004,          35.
    842,         100., 0.0250000004,          35.
    843,         125., 0.0250000004,          35.
    844,         150., 0.0250000004,          35.
    845,         175., 0.0250000004,          35.
    846,         200., 0.0250000004,          35.
    847,         225., 0.0250000004,          35.
    848,         250., 0.0250000004,          35.
    849,         275., 0.0250000004,          35.
    850,         300., 0.0250000004,          35.
    851,         325., 0.0250000004,          35.
    852,         350., 0.0250000004,          35.
    853,         375., 0.0250000004,          35.
    854,         400., 0.0250000004,          35.
    855,         425., 0.0250000004,          35.
    856,         450., 0.0250000004,          35.
    857,         475., 0.0250000004,          35.
    858,         500., 0.0250000004,          35.
    859,         525., 0.0250000004,          35.
    860,         550., 0.0250000004,          35.
    861,         575., 0.0250000004,          35.
    862,         600., 0.0250000004,          35.
    863,         625., 0.0250000004,          35.
    864,         625., 0.0250000004,          30.
    865,         600., 0.0250000004,          30.
    866,         575., 0.0250000004,          30.
    867,         550., 0.0250000004,          30.
    868,         525., 0.0250000004,          30.
    869,         500., 0.0250000004,          30.
    870,         475., 0.0250000004,          30.
    871,         450., 0.0250000004,          30.
    872,         425., 0.0250000004,          30.
    873,         400., 0.0250000004,          30.
    874,         375., 0.0250000004,          30.
    875,         350., 0.0250000004,          30.
    876,         325., 0.0250000004,          30.
    877,         300., 0.0250000004,          30.
    878,         275., 0.0250000004,          30.
    879,         250., 0.0250000004,          30.
    880,         225., 0.0250000004,          30.
    881,         200., 0.0250000004,          30.
    882,         175., 0.0250000004,          30.
    883,         150., 0.0250000004,          30.
    884,         125., 0.0250000004,          30.
    885,         100., 0.0250000004,          30.
    886,          75., 0.0250000004,          30.
    887,          50., 0.0250000004,          30.
    888,          25., 0.0250000004,          30.
    889,          25.,           0.,          30.
    890,          50.,           0.,          30.
    891,          75.,           0.,          30.
    892,         100.,           0.,          30.
    893,         125.,           0.,          30.
    894,         150.,           0.,          30.
    895,         175.,           0.,          30.
    896,         200.,           0.,          30.
    897,         225.,           0.,          30.
    898,         250.,           0.,          30.
    899,         275.,           0.,          30.
    900,         300.,           0.,          30.
    901,         325.,           0.,          30.
    902,         350.,           0.,          30.
    903,         375.,           0.,          30.
    904,         400.,           0.,          30.
    905,         425.,           0.,          30.
    906,         450.,           0.,          30.
    907,         475.,           0.,          30.
    908,         500.,           0.,          30.
    909,         525.,           0.,          30.
    910,         550.,           0.,          30.
    911,         575.,           0.,          30.
    912,         600.,           0.,          30.
    913,         625.,           0.,          30.
    914,          25.,           0.,          35.
    915,          50.,           0.,          35.
    916,          75.,           0.,          35.
    917,         100.,           0.,          35.
    918,         125.,           0.,          35.
    919,         150.,           0.,          35.
    920,         175.,           0.,          35.
    921,         200.,           0.,          35.
    922,         225.,           0.,          35.
    923,         250.,           0.,          35.
    924,         275.,           0.,          35.
    925,         300.,           0.,          35.
    926,         325.,           0.,          35.
    927,         350.,           0.,          35.
    928,         375.,           0.,          35.
    929,         400.,           0.,          35.
    930,         425.,           0.,          35.
    931,         450.,           0.,          35.
    932,         475.,           0.,          35.
    933,         500.,           0.,          35.
    934,         525.,           0.,          35.
    935,         550.,           0.,          35.
    936,         575.,           0.,          35.
    937,         600.,           0.,          35.
    938,         625.,           0.,          35.
    939,          25., 0.0500000007,          30.
    940,          50., 0.0500000007,          30.
    941,          75., 0.0500000007,          30.
    942,         100., 0.0500000007,          30.
    943,         125., 0.0500000007,          30.
    944,         150., 0.0500000007,          30.
    945,         175., 0.0500000007,          30.
    946,         200., 0.0500000007,          30.
    947,         225., 0.0500000007,          30.
    948,         250., 0.0500000007,          30.
    949,         275., 0.0500000007,          30.
    950,         300., 0.0500000007,          30.
    951,         325., 0.0500000007,          30.
    952,         350., 0.0500000007,          30.
    953,         375., 0.0500000007,          30.
    954,         400., 0.0500000007,          30.
    955,         425., 0.0500000007,          30.
    956,         450., 0.0500000007,          30.
    957,         475., 0.0500000007,          30.
    958,         500., 0.0500000007,          30.
    959,         525., 0.0500000007,          30.
    960,         550., 0.0500000007,          30.
    961,         575., 0.0500000007,          30.
    962,         600., 0.0500000007,          30.
    963,         625., 0.0500000007,          30.
    964,         625.,  0.075000003,          30.
    965,         600.,  0.075000003,          30.
    966,         575.,  0.075000003,          30.
    967,         550.,  0.075000003,          30.
    968,         525.,  0.075000003,          30.
    969,         500.,  0.075000003,          30.
    970,         475.,  0.075000003,          30.
    971,         450.,  0.075000003,          30.
    972,         425.,  0.075000003,          30.
    973,         400.,  0.075000003,          30.
    974,         375.,  0.075000003,          30.
    975,         350.,  0.075000003,          30.
    976,         325.,  0.075000003,          30.
    977,         300.,  0.075000003,          30.
    978,         275.,  0.075000003,          30.
    979,         250.,  0.075000003,          30.
    980,         225.,  0.075000003,          30.
    981,         200.,  0.075000003,          30.
    982,         175.,  0.075000003,          30.
    983,         150.,  0.075000003,          30.
    984,         125.,  0.075000003,          30.
    985,         100.,  0.075000003,          30.
    986,          75.,  0.075000003,          30.
    987,          50.,  0.075000003,          30.
    988,          25.,  0.075000003,          30.
    989,         625., 0.0500000007,          20.
    990,         600., 0.0500000007,          20.
    991,         575., 0.0500000007,          20.
    992,         550., 0.0500000007,          20.
    993,         525., 0.0500000007,          20.
    994,         500., 0.0500000007,          20.
    995,         475., 0.0500000007,          20.
    996,         450., 0.0500000007,          20.
    997,         425., 0.0500000007,          20.
    998,         400., 0.0500000007,          20.
    999,         375., 0.0500000007,          20.
   1000,         350., 0.0500000007,          20.
   1001,         325., 0.0500000007,          20.
   1002,         300., 0.0500000007,          20.
   1003,         275., 0.0500000007,          20.
   1004,         250., 0.0500000007,          20.
   1005,         225., 0.0500000007,          20.
   1006,         200., 0.0500000007,          20.
   1007,         175., 0.0500000007,          20.
   1008,         150., 0.0500000007,          20.
   1009,         125., 0.0500000007,          20.
   1010,         100., 0.0500000007,          20.
   1011,          75., 0.0500000007,          20.
   1012,          50., 0.0500000007,          20.
   1013,          25., 0.0500000007,          20.
   1014,          25., 0.0250000004,          20.
   1015,          50., 0.0250000004,          20.
   1016,          75., 0.0250000004,          20.
   1017,         100., 0.0250000004,          20.
   1018,         125., 0.0250000004,          20.
   1019,         150., 0.0250000004,          20.
   1020,         175., 0.0250000004,          20.
   1021,         200., 0.0250000004,          20.
   1022,         225., 0.0250000004,          20.
   1023,         250., 0.0250000004,          20.
   1024,         275., 0.0250000004,          20.
   1025,         300., 0.0250000004,          20.
   1026,         325., 0.0250000004,          20.
   1027,         350., 0.0250000004,          20.
   1028,         375., 0.0250000004,          20.
   1029,         400., 0.0250000004,          20.
   1030,         425., 0.0250000004,          20.
   1031,         450., 0.0250000004,          20.
   1032,         475., 0.0250000004,          20.
   1033,         500., 0.0250000004,          20.
   1034,         525., 0.0250000004,          20.
   1035,         550., 0.0250000004,          20.
   1036,         575., 0.0250000004,          20.
   1037,         600., 0.0250000004,          20.
   1038,         625., 0.0250000004,          20.
   1039,         625.,  0.075000003,          20.
   1040,         600.,  0.075000003,          20.
   1041,         575.,  0.075000003,          20.
   1042,         550.,  0.075000003,          20.
   1043,         525.,  0.075000003,          20.
   1044,         500.,  0.075000003,          20.
   1045,         475.,  0.075000003,          20.
   1046,         450.,  0.075000003,          20.
   1047,         425.,  0.075000003,          20.
   1048,         400.,  0.075000003,          20.
   1049,         375.,  0.075000003,          20.
   1050,         350.,  0.075000003,          20.
   1051,         325.,  0.075000003,          20.
   1052,         300.,  0.075000003,          20.
   1053,         275.,  0.075000003,          20.
   1054,         250.,  0.075000003,          20.
   1055,         225.,  0.075000003,          20.
   1056,         200.,  0.075000003,          20.
   1057,         175.,  0.075000003,          20.
   1058,         150.,  0.075000003,          20.
   1059,         125.,  0.075000003,          20.
   1060,         100.,  0.075000003,          20.
   1061,          75.,  0.075000003,          20.
   1062,          50.,  0.075000003,          20.
   1063,          25.,  0.075000003,          20.
   1064,          25., 0.0250000004,           0.
   1065,          50., 0.0250000004,           0.
   1066,          75., 0.0250000004,           0.
   1067,         100., 0.0250000004,           0.
   1068,         125., 0.0250000004,           0.
   1069,         150., 0.0250000004,           0.
   1070,         175., 0.0250000004,           0.
   1071,         200., 0.0250000004,           0.
   1072,         225., 0.0250000004,           0.
   1073,         250., 0.0250000004,           0.
   1074,         275., 0.0250000004,           0.
   1075,         300., 0.0250000004,           0.
   1076,         325., 0.0250000004,           0.
   1077,         350., 0.0250000004,           0.
   1078,         375., 0.0250000004,           0.
   1079,         400., 0.0250000004,           0.
   1080,         425., 0.0250000004,           0.
   1081,         450., 0.0250000004,           0.
   1082,         475., 0.0250000004,           0.
   1083,         500., 0.0250000004,           0.
   1084,         525., 0.0250000004,           0.
   1085,         550., 0.0250000004,           0.
   1086,         575., 0.0250000004,           0.
   1087,         600., 0.0250000004,           0.
   1088,         625., 0.0250000004,           0.
   1089,         625.,           0.,           0.
   1090,         600.,           0.,           0.
   1091,         575.,           0.,           0.
   1092,         550.,           0.,           0.
   1093,         525.,           0.,           0.
   1094,         500.,           0.,           0.
   1095,         475.,           0.,           0.
   1096,         450.,           0.,           0.
   1097,         425.,           0.,           0.
   1098,         400.,           0.,           0.
   1099,         375.,           0.,           0.
   1100,         350.,           0.,           0.
   1101,         325.,           0.,           0.
   1102,         300.,           0.,           0.
   1103,         275.,           0.,           0.
   1104,         250.,           0.,           0.
   1105,         225.,           0.,           0.
   1106,         200.,           0.,           0.
   1107,         175.,           0.,           0.
   1108,         150.,           0.,           0.
   1109,         125.,           0.,           0.
   1110,         100.,           0.,           0.
   1111,          75.,           0.,           0.
   1112,          50.,           0.,           0.
   1113,          25.,           0.,           0.
   1114,          25.,           0.,          20.
   1115,          50.,           0.,          20.
   1116,          75.,           0.,          20.
   1117,         100.,           0.,          20.
   1118,         125.,           0.,          20.
   1119,         150.,           0.,          20.
   1120,         175.,           0.,          20.
   1121,         200.,           0.,          20.
   1122,         225.,           0.,          20.
   1123,         250.,           0.,          20.
   1124,         275.,           0.,          20.
   1125,         300.,           0.,          20.
   1126,         325.,           0.,          20.
   1127,         350.,           0.,          20.
   1128,         375.,           0.,          20.
   1129,         400.,           0.,          20.
   1130,         425.,           0.,          20.
   1131,         450.,           0.,          20.
   1132,         475.,           0.,          20.
   1133,         500.,           0.,          20.
   1134,         525.,           0.,          20.
   1135,         550.,           0.,          20.
   1136,         575.,           0.,          20.
   1137,         600.,           0.,          20.
   1138,         625.,           0.,          20.
   1139,          25., 0.0500000007,           0.
   1140,          50., 0.0500000007,           0.
   1141,          75., 0.0500000007,           0.
   1142,         100., 0.0500000007,           0.
   1143,         125., 0.0500000007,           0.
   1144,         150., 0.0500000007,           0.
   1145,         175., 0.0500000007,           0.
   1146,         200., 0.0500000007,           0.
   1147,         225., 0.0500000007,           0.
   1148,         250., 0.0500000007,           0.
   1149,         275., 0.0500000007,           0.
   1150,         300., 0.0500000007,           0.
   1151,         325., 0.0500000007,           0.
   1152,         350., 0.0500000007,           0.
   1153,         375., 0.0500000007,           0.
   1154,         400., 0.0500000007,           0.
   1155,         425., 0.0500000007,           0.
   1156,         450., 0.0500000007,           0.
   1157,         475., 0.0500000007,           0.
   1158,         500., 0.0500000007,           0.
   1159,         525., 0.0500000007,           0.
   1160,         550., 0.0500000007,           0.
   1161,         575., 0.0500000007,           0.
   1162,         600., 0.0500000007,           0.
   1163,         625., 0.0500000007,           0.
   1164,         625.,  0.075000003,           0.
   1165,         600.,  0.075000003,           0.
   1166,         575.,  0.075000003,           0.
   1167,         550.,  0.075000003,           0.
   1168,         525.,  0.075000003,           0.
   1169,         500.,  0.075000003,           0.
   1170,         475.,  0.075000003,           0.
   1171,         450.,  0.075000003,           0.
   1172,         425.,  0.075000003,           0.
   1173,         400.,  0.075000003,           0.
   1174,         375.,  0.075000003,           0.
   1175,         350.,  0.075000003,           0.
   1176,         325.,  0.075000003,           0.
   1177,         300.,  0.075000003,           0.
   1178,         275.,  0.075000003,           0.
   1179,         250.,  0.075000003,           0.
   1180,         225.,  0.075000003,           0.
   1181,         200.,  0.075000003,           0.
   1182,         175.,  0.075000003,           0.
   1183,         150.,  0.075000003,           0.
   1184,         125.,  0.075000003,           0.
   1185,         100.,  0.075000003,           0.
   1186,          75.,  0.075000003,           0.
   1187,          50.,  0.075000003,           0.
   1188,          25.,  0.075000003,           0.
*Element, type=C3D8R
 1,   5, 139, 188,   8,   1,  89, 138,   4
 2, 139, 140, 187, 188,  89,  90, 137, 138
 3, 140, 141, 186, 187,  90,  91, 136, 137
 4, 141, 142, 185, 186,  91,  92, 135, 136
 5, 142, 143, 184, 185,  92,  93, 134, 135
 6, 143, 144, 183, 184,  93,  94, 133, 134
 7, 144, 145, 182, 183,  94,  95, 132, 133
 8, 145, 146, 181, 182,  95,  96, 131, 132
 9, 146, 147, 180, 181,  96,  97, 130, 131
10, 147, 148, 179, 180,  97,  98, 129, 130
11, 148, 149, 178, 179,  98,  99, 128, 129
12, 149, 150, 177, 178,  99, 100, 127, 128
13, 150, 151, 176, 177, 100, 101, 126, 127
14, 151, 152, 175, 176, 101, 102, 125, 126
15, 152, 153, 174, 175, 102, 103, 124, 125
16, 153, 154, 173, 174, 103, 104, 123, 124
17, 154, 155, 172, 173, 104, 105, 122, 123
18, 155, 156, 171, 172, 105, 106, 121, 122
19, 156, 157, 170, 171, 106, 107, 120, 121
20, 157, 158, 169, 170, 107, 108, 119, 120
21, 158, 159, 168, 169, 108, 109, 118, 119
22, 159, 160, 167, 168, 109, 110, 117, 118
23, 160, 161, 166, 167, 110, 111, 116, 117
24, 161, 162, 165, 166, 111, 112, 115, 116
25, 162, 163, 164, 165, 112, 113, 114, 115
26, 163,   6,   7, 164, 113,   2,   3, 114
27,  13,  14, 239, 288,   9,  10, 189, 238
28, 288, 239, 240, 287, 238, 189, 190, 237
29, 287, 240, 241, 286, 237, 190, 191, 236
30, 286, 241, 242, 285, 236, 191, 192, 235
31, 285, 242, 243, 284, 235, 192, 193, 234
32, 284, 243, 244, 283, 234, 193, 194, 233
33, 283, 244, 245, 282, 233, 194, 195, 232
34, 282, 245, 246, 281, 232, 195, 196, 231
35, 281, 246, 247, 280, 231, 196, 197, 230
36, 280, 247, 248, 279, 230, 197, 198, 229
37, 279, 248, 249, 278, 229, 198, 199, 228
38, 278, 249, 250, 277, 228, 199, 200, 227
39, 277, 250, 251, 276, 227, 200, 201, 226
40, 276, 251, 252, 275, 226, 201, 202, 225
41, 275, 252, 253, 274, 225, 202, 203, 224
42, 274, 253, 254, 273, 224, 203, 204, 223
43, 273, 254, 255, 272, 223, 204, 205, 222
44, 272, 255, 256, 271, 222, 205, 206, 221
45, 271, 256, 257, 270, 221, 206, 207, 220
46, 270, 257, 258, 269, 220, 207, 208, 219
47, 269, 258, 259, 268, 219, 208, 209, 218
48, 268, 259, 260, 267, 218, 209, 210, 217
49, 267, 260, 261, 266, 217, 210, 211, 216
50, 266, 261, 262, 265, 216, 211, 212, 215
51, 265, 262, 263, 264, 215, 212, 213, 214
52, 264, 263,  15,  16, 214, 213,  11,  12
53,   1,  89, 138,   4,  17, 289, 338,  20
54,  89,  90, 137, 138, 289, 290, 337, 338
55,  90,  91, 136, 137, 290, 291, 336, 337
56,  91,  92, 135, 136, 291, 292, 335, 336
57,  92,  93, 134, 135, 292, 293, 334, 335
58,  93,  94, 133, 134, 293, 294, 333, 334
59,  94,  95, 132, 133, 294, 295, 332, 333
60,  95,  96, 131, 132, 295, 296, 331, 332
61,  96,  97, 130, 131, 296, 297, 330, 331
62,  97,  98, 129, 130, 297, 298, 329, 330
63,  98,  99, 128, 129, 298, 299, 328, 329
64,  99, 100, 127, 128, 299, 300, 327, 328
65, 100, 101, 126, 127, 300, 301, 326, 327
66, 101, 102, 125, 126, 301, 302, 325, 326
67, 102, 103, 124, 125, 302, 303, 324, 325
68, 103, 104, 123, 124, 303, 304, 323, 324
69, 104, 105, 122, 123, 304, 305, 322, 323
70, 105, 106, 121, 122, 305, 306, 321, 322
71, 106, 107, 120, 121, 306, 307, 320, 321
72, 107, 108, 119, 120, 307, 308, 319, 320
73, 108, 109, 118, 119, 308, 309, 318, 319
74, 109, 110, 117, 118, 309, 310, 317, 318
75, 110, 111, 116, 117, 310, 311, 316, 317
76, 111, 112, 115, 116, 311, 312, 315, 316
77, 112, 113, 114, 115, 312, 313, 314, 315
78, 113,   2,   3, 114, 313,  18,  19, 314
 79,   9,  10, 189, 238,  21,  22, 339, 388
 80, 238, 189, 190, 237, 388, 339, 340, 387
 81, 237, 190, 191, 236, 387, 340, 341, 386
 82, 236, 191, 192, 235, 386, 341, 342, 385
 83, 235, 192, 193, 234, 385, 342, 343, 384
 84, 234, 193, 194, 233, 384, 343, 344, 383
 85, 233, 194, 195, 232, 383, 344, 345, 382
 86, 232, 195, 196, 231, 382, 345, 346, 381
 87, 231, 196, 197, 230, 381, 346, 347, 380
 88, 230, 197, 198, 229, 380, 347, 348, 379
 89, 229, 198, 199, 228, 379, 348, 349, 378
 90, 228, 199, 200, 227, 378, 349, 350, 377
 91, 227, 200, 201, 226, 377, 350, 351, 376
 92, 226, 201, 202, 225, 376, 351, 352, 375
 93, 225, 202, 203, 224, 375, 352, 353, 374
 94, 224, 203, 204, 223, 374, 353, 354, 373
 95, 223, 204, 205, 222, 373, 354, 355, 372
 96, 222, 205, 206, 221, 372, 355, 356, 371
 97, 221, 206, 207, 220, 371, 356, 357, 370
 98, 220, 207, 208, 219, 370, 357, 358, 369
 99, 219, 208, 209, 218, 369, 358, 359, 368
100, 218, 209, 210, 217, 368, 359, 360, 367
101, 217, 210, 211, 216, 367, 360, 361, 366
102, 216, 211, 212, 215, 366, 361, 362, 365
103, 215, 212, 213, 214, 365, 362, 363, 364
104, 214, 213,  11,  12, 364, 363,  23,  24
105,  89, 238, 388, 289,   1,   9,  21,  17
106,  90, 237, 387, 290,  89, 238, 388, 289
107,  91, 236, 386, 291,  90, 237, 387, 290
108,  92, 235, 385, 292,  91, 236, 386, 291
109,  93, 234, 384, 293,  92, 235, 385, 292
110,  94, 233, 383, 294,  93, 234, 384, 293
111,  95, 232, 382, 295,  94, 233, 383, 294
112,  96, 231, 381, 296,  95, 232, 382, 295
113,  97, 230, 380, 297,  96, 231, 381, 296
114,  98, 229, 379, 298,  97, 230, 380, 297
115,  99, 228, 378, 299,  98, 229, 379, 298
116, 100, 227, 377, 300,  99, 228, 378, 299
117, 101, 226, 376, 301, 100, 227, 377, 300
118, 102, 225, 375, 302, 101, 226, 376, 301
119, 103, 224, 374, 303, 102, 225, 375, 302
120, 104, 223, 373, 304, 103, 224, 374, 303
121, 105, 222, 372, 305, 104, 223, 373, 304
122, 106, 221, 371, 306, 105, 222, 372, 305
123, 107, 220, 370, 307, 106, 221, 371, 306
124, 108, 219, 369, 308, 107, 220, 370, 307
125, 109, 218, 368, 309, 108, 219, 369, 308
126, 110, 217, 367, 310, 109, 218, 368, 309
127, 111, 216, 366, 311, 110, 217, 367, 310
128, 112, 215, 365, 312, 111, 216, 366, 311
129, 113, 214, 364, 313, 112, 215, 365, 312
130,   2,  12,  24,  18, 113, 214, 364, 313
131,  25, 389, 438,  28,  13, 288, 139,   5
132, 389, 390, 437, 438, 288, 287, 140, 139
133, 390, 391, 436, 437, 287, 286, 141, 140
134, 391, 392, 435, 436, 286, 285, 142, 141
135, 392, 393, 434, 435, 285, 284, 143, 142
136, 393, 394, 433, 434, 284, 283, 144, 143
137, 394, 395, 432, 433, 283, 282, 145, 144
138, 395, 396, 431, 432, 282, 281, 146, 145
139, 396, 397, 430, 431, 281, 280, 147, 146
140, 397, 398, 429, 430, 280, 279, 148, 147
141, 398, 399, 428, 429, 279, 278, 149, 148
142, 399, 400, 427, 428, 278, 277, 150, 149
143, 400, 401, 426, 427, 277, 276, 151, 150
144, 401, 402, 425, 426, 276, 275, 152, 151
145, 402, 403, 424, 425, 275, 274, 153, 152
146, 403, 404, 423, 424, 274, 273, 154, 153
147, 404, 405, 422, 423, 273, 272, 155, 154
148, 405, 406, 421, 422, 272, 271, 156, 155
149, 406, 407, 420, 421, 271, 270, 157, 156
150, 407, 408, 419, 420, 270, 269, 158, 157
151, 408, 409, 418, 419, 269, 268, 159, 158
152, 409, 410, 417, 418, 268, 267, 160, 159
153, 410, 411, 416, 417, 267, 266, 161, 160
154, 411, 412, 415, 416, 266, 265, 162, 161
155, 412, 413, 414, 415, 265, 264, 163, 162
156, 413,  26,  27, 414, 264,  16,   6, 163
157,  25,  29, 439, 389,  13,  14, 239, 288
158, 389, 439, 440, 390, 288, 239, 240, 287
159, 390, 440, 441, 391, 287, 240, 241, 286
160, 391, 441, 442, 392, 286, 241, 242, 285
161, 392, 442, 443, 393, 285, 242, 243, 284
162, 393, 443, 444, 394, 284, 243, 244, 283
163, 394, 444, 445, 395, 283, 244, 245, 282
164, 395, 445, 446, 396, 282, 245, 246, 281
165, 396, 446, 447, 397, 281, 246, 247, 280
166, 397, 447, 448, 398, 280, 247, 248, 279
167, 398, 448, 449, 399, 279, 248, 249, 278
168, 399, 449, 450, 400, 278, 249, 250, 277
169, 400, 450, 451, 401, 277, 250, 251, 276
170, 401, 451, 452, 402, 276, 251, 252, 275
171, 402, 452, 453, 403, 275, 252, 253, 274
172, 403, 453, 454, 404, 274, 253, 254, 273
173, 404, 454, 455, 405, 273, 254, 255, 272
174, 405, 455, 456, 406, 272, 255, 256, 271
175, 406, 456, 457, 407, 271, 256, 257, 270
176, 407, 457, 458, 408, 270, 257, 258, 269
177, 408, 458, 459, 409, 269, 258, 259, 268
178, 409, 459, 460, 410, 268, 259, 260, 267
179, 410, 460, 461, 411, 267, 260, 261, 266
180, 411, 461, 462, 412, 266, 261, 262, 265
181, 412, 462, 463, 413, 265, 262, 263, 264
182, 413, 463,  30,  26, 264, 263,  15,  16
183,  13, 288, 139,   5,   9, 238,  89,   1
184, 288, 287, 140, 139, 238, 237,  90,  89
185, 287, 286, 141, 140, 237, 236,  91,  90
186, 286, 285, 142, 141, 236, 235,  92,  91
187, 285, 284, 143, 142, 235, 234,  93,  92
188, 284, 283, 144, 143, 234, 233,  94,  93
189, 283, 282, 145, 144, 233, 232,  95,  94
190, 282, 281, 146, 145, 232, 231,  96,  95
191, 281, 280, 147, 146, 231, 230,  97,  96
192, 280, 279, 148, 147, 230, 229,  98,  97
193, 279, 278, 149, 148, 229, 228,  99,  98
194, 278, 277, 150, 149, 228, 227, 100,  99
195, 277, 276, 151, 150, 227, 226, 101, 100
196, 276, 275, 152, 151, 226, 225, 102, 101
197, 275, 274, 153, 152, 225, 224, 103, 102
198, 274, 273, 154, 153, 224, 223, 104, 103
199, 273, 272, 155, 154, 223, 222, 105, 104
200, 272, 271, 156, 155, 222, 221, 106, 105
201, 271, 270, 157, 156, 221, 220, 107, 106
202, 270, 269, 158, 157, 220, 219, 108, 107
203, 269, 268, 159, 158, 219, 218, 109, 108
204, 268, 267, 160, 159, 218, 217, 110, 109
205, 267, 266, 161, 160, 217, 216, 111, 110
206, 266, 265, 162, 161, 216, 215, 112, 111
207, 265, 264, 163, 162, 215, 214, 113, 112
208, 264,  16,   6, 163, 214,  12,   2, 113
209,  31,  32, 464, 513,  27,  35, 514, 414
210, 513, 464, 465, 512, 414, 514, 515, 415
211, 512, 465, 466, 511, 415, 515, 516, 416
212, 511, 466, 467, 510, 416, 516, 517, 417
213, 510, 467, 468, 509, 417, 517, 518, 418
214, 509, 468, 469, 508, 418, 518, 519, 419
215, 508, 469, 470, 507, 419, 519, 520, 420
216, 507, 470, 471, 506, 420, 520, 521, 421
217, 506, 471, 472, 505, 421, 521, 522, 422
218, 505, 472, 473, 504, 422, 522, 523, 423
219, 504, 473, 474, 503, 423, 523, 524, 424
220, 503, 474, 475, 502, 424, 524, 525, 425
221, 502, 475, 476, 501, 425, 525, 526, 426
222, 501, 476, 477, 500, 426, 526, 527, 427
223, 500, 477, 478, 499, 427, 527, 528, 428
224, 499, 478, 479, 498, 428, 528, 529, 429
225, 498, 479, 480, 497, 429, 529, 530, 430
226, 497, 480, 481, 496, 430, 530, 531, 431
227, 496, 481, 482, 495, 431, 531, 532, 432
228, 495, 482, 483, 494, 432, 532, 533, 433
229, 494, 483, 484, 493, 433, 533, 534, 434
230, 493, 484, 485, 492, 434, 534, 535, 435
231, 492, 485, 486, 491, 435, 535, 536, 436
232, 491, 486, 487, 490, 436, 536, 537, 437
233, 490, 487, 488, 489, 437, 537, 538, 438
234, 489, 488,  33,  34, 438, 538,  36,  28
235,  31, 513, 563,  38,  27, 414, 413,  26
236, 513, 512, 562, 563, 414, 415, 412, 413
237, 512, 511, 561, 562, 415, 416, 411, 412
238, 511, 510, 560, 561, 416, 417, 410, 411
239, 510, 509, 559, 560, 417, 418, 409, 410
240, 509, 508, 558, 559, 418, 419, 408, 409
241, 508, 507, 557, 558, 419, 420, 407, 408
242, 507, 506, 556, 557, 420, 421, 406, 407
243, 506, 505, 555, 556, 421, 422, 405, 406
244, 505, 504, 554, 555, 422, 423, 404, 405
245, 504, 503, 553, 554, 423, 424, 403, 404
246, 503, 502, 552, 553, 424, 425, 402, 403
247, 502, 501, 551, 552, 425, 426, 401, 402
248, 501, 500, 550, 551, 426, 427, 400, 401
249, 500, 499, 549, 550, 427, 428, 399, 400
250, 499, 498, 548, 549, 428, 429, 398, 399
251, 498, 497, 547, 548, 429, 430, 397, 398
252, 497, 496, 546, 547, 430, 431, 396, 397
253, 496, 495, 545, 546, 431, 432, 395, 396
254, 495, 494, 544, 545, 432, 433, 394, 395
255, 494, 493, 543, 544, 433, 434, 393, 394
256, 493, 492, 542, 543, 434, 435, 392, 393
257, 492, 491, 541, 542, 435, 436, 391, 392
258, 491, 490, 540, 541, 436, 437, 390, 391
259, 490, 489, 539, 540, 437, 438, 389, 390
260, 489,  34,  37, 539, 438,  28,  25, 389
261,  28, 438, 538,  36,   5, 139, 188,   8
262, 438, 437, 537, 538, 139, 140, 187, 188
263, 437, 436, 536, 537, 140, 141, 186, 187
264, 436, 435, 535, 536, 141, 142, 185, 186
265, 435, 434, 534, 535, 142, 143, 184, 185
266, 434, 433, 533, 534, 143, 144, 183, 184
267, 433, 432, 532, 533, 144, 145, 182, 183
268, 432, 431, 531, 532, 145, 146, 181, 182
269, 431, 430, 530, 531, 146, 147, 180, 181
270, 430, 429, 529, 530, 147, 148, 179, 180
271, 429, 428, 528, 529, 148, 149, 178, 179
272, 428, 427, 527, 528, 149, 150, 177, 178
273, 427, 426, 526, 527, 150, 151, 176, 177
274, 426, 425, 525, 526, 151, 152, 175, 176
275, 425, 424, 524, 525, 152, 153, 174, 175
276, 424, 423, 523, 524, 153, 154, 173, 174
277, 423, 422, 522, 523, 154, 155, 172, 173
278, 422, 421, 521, 522, 155, 156, 171, 172
279, 421, 420, 520, 521, 156, 157, 170, 171
280, 420, 419, 519, 520, 157, 158, 169, 170
281, 419, 418, 518, 519, 158, 159, 168, 169
282, 418, 417, 517, 518, 159, 160, 167, 168
283, 417, 416, 516, 517, 160, 161, 166, 167
284, 416, 415, 515, 516, 161, 162, 165, 166
285, 415, 414, 514, 515, 162, 163, 164, 165
286, 414,  27,  35, 514, 163,   6,   7, 164
287,  41, 589, 638,  44,  38, 563, 588,  40
288, 589, 590, 637, 638, 563, 562, 587, 588
289, 590, 591, 636, 637, 562, 561, 586, 587
290, 591, 592, 635, 636, 561, 560, 585, 586
291, 592, 593, 634, 635, 560, 559, 584, 585
292, 593, 594, 633, 634, 559, 558, 583, 584
293, 594, 595, 632, 633, 558, 557, 582, 583
294, 595, 596, 631, 632, 557, 556, 581, 582
295, 596, 597, 630, 631, 556, 555, 580, 581
296, 597, 598, 629, 630, 555, 554, 579, 580
297, 598, 599, 628, 629, 554, 553, 578, 579
298, 599, 600, 627, 628, 553, 552, 577, 578
299, 600, 601, 626, 627, 552, 551, 576, 577
300, 601, 602, 625, 626, 551, 550, 575, 576
301, 602, 603, 624, 625, 550, 549, 574, 575
302, 603, 604, 623, 624, 549, 548, 573, 574
303, 604, 605, 622, 623, 548, 547, 572, 573
304, 605, 606, 621, 622, 547, 546, 571, 572
305, 606, 607, 620, 621, 546, 545, 570, 571
306, 607, 608, 619, 620, 545, 544, 569, 570
307, 608, 609, 618, 619, 544, 543, 568, 569
308, 609, 610, 617, 618, 543, 542, 567, 568
309, 610, 611, 616, 617, 542, 541, 566, 567
310, 611, 612, 615, 616, 541, 540, 565, 566
311, 612, 613, 614, 615, 540, 539, 564, 565
312, 613,  42,  43, 614, 539,  37,  39, 564
313,  45,  46, 639, 688,  31,  32, 464, 513
314, 688, 639, 640, 687, 513, 464, 465, 512
315, 687, 640, 641, 686, 512, 465, 466, 511
316, 686, 641, 642, 685, 511, 466, 467, 510
317, 685, 642, 643, 684, 510, 467, 468, 509
318, 684, 643, 644, 683, 509, 468, 469, 508
319, 683, 644, 645, 682, 508, 469, 470, 507
320, 682, 645, 646, 681, 507, 470, 471, 506
321, 681, 646, 647, 680, 506, 471, 472, 505
322, 680, 647, 648, 679, 505, 472, 473, 504
323, 679, 648, 649, 678, 504, 473, 474, 503
324, 678, 649, 650, 677, 503, 474, 475, 502
325, 677, 650, 651, 676, 502, 475, 476, 501
326, 676, 651, 652, 675, 501, 476, 477, 500
327, 675, 652, 653, 674, 500, 477, 478, 499
328, 674, 653, 654, 673, 499, 478, 479, 498
329, 673, 654, 655, 672, 498, 479, 480, 497
330, 672, 655, 656, 671, 497, 480, 481, 496
331, 671, 656, 657, 670, 496, 481, 482, 495
332, 670, 657, 658, 669, 495, 482, 483, 494
333, 669, 658, 659, 668, 494, 483, 484, 493
334, 668, 659, 660, 667, 493, 484, 485, 492
335, 667, 660, 661, 666, 492, 485, 486, 491
336, 666, 661, 662, 665, 491, 486, 487, 490
337, 665, 662, 663, 664, 490, 487, 488, 489
338, 664, 663,  47,  48, 489, 488,  33,  34
339,  38, 563, 588,  40,  26, 413, 463,  30
340, 563, 562, 587, 588, 413, 412, 462, 463
341, 562, 561, 586, 587, 412, 411, 461, 462
342, 561, 560, 585, 586, 411, 410, 460, 461
343, 560, 559, 584, 585, 410, 409, 459, 460
344, 559, 558, 583, 584, 409, 408, 458, 459
345, 558, 557, 582, 583, 408, 407, 457, 458
346, 557, 556, 581, 582, 407, 406, 456, 457
347, 556, 555, 580, 581, 406, 405, 455, 456
348, 555, 554, 579, 580, 405, 404, 454, 455
349, 554, 553, 578, 579, 404, 403, 453, 454
350, 553, 552, 577, 578, 403, 402, 452, 453
351, 552, 551, 576, 577, 402, 401, 451, 452
352, 551, 550, 575, 576, 401, 400, 450, 451
353, 550, 549, 574, 575, 400, 399, 449, 450
354, 549, 548, 573, 574, 399, 398, 448, 449
355, 548, 547, 572, 573, 398, 397, 447, 448
356, 547, 546, 571, 572, 397, 396, 446, 447
357, 546, 545, 570, 571, 396, 395, 445, 446
358, 545, 544, 569, 570, 395, 394, 444, 445
359, 544, 543, 568, 569, 394, 393, 443, 444
360, 543, 542, 567, 568, 393, 392, 442, 443
361, 542, 541, 566, 567, 392, 391, 441, 442
362, 541, 540, 565, 566, 391, 390, 440, 441
363, 540, 539, 564, 565, 390, 389, 439, 440
364, 539,  37,  39, 564, 389,  25,  29, 439
365,  49,  50, 689, 738,  48,  42, 613, 664
366, 738, 689, 690, 737, 664, 613, 612, 665
367, 737, 690, 691, 736, 665, 612, 611, 666
368, 736, 691, 692, 735, 666, 611, 610, 667
369, 735, 692, 693, 734, 667, 610, 609, 668
370, 734, 693, 694, 733, 668, 609, 608, 669
371, 733, 694, 695, 732, 669, 608, 607, 670
372, 732, 695, 696, 731, 670, 607, 606, 671
373, 731, 696, 697, 730, 671, 606, 605, 672
374, 730, 697, 698, 729, 672, 605, 604, 673
375, 729, 698, 699, 728, 673, 604, 603, 674
376, 728, 699, 700, 727, 674, 603, 602, 675
377, 727, 700, 701, 726, 675, 602, 601, 676
378, 726, 701, 702, 725, 676, 601, 600, 677
379, 725, 702, 703, 724, 677, 600, 599, 678
380, 724, 703, 704, 723, 678, 599, 598, 679
381, 723, 704, 705, 722, 679, 598, 597, 680
382, 722, 705, 706, 721, 680, 597, 596, 681
383, 721, 706, 707, 720, 681, 596, 595, 682
384, 720, 707, 708, 719, 682, 595, 594, 683
385, 719, 708, 709, 718, 683, 594, 593, 684
386, 718, 709, 710, 717, 684, 593, 592, 685
387, 717, 710, 711, 716, 685, 592, 591, 686
388, 716, 711, 712, 715, 686, 591, 590, 687
389, 715, 712, 713, 714, 687, 590, 589, 688
390, 714, 713,  51,  52, 688, 589,  41,  45
391,  49, 738, 763,  54,  48, 664, 663,  47
392, 738, 737, 762, 763, 664, 665, 662, 663
393, 737, 736, 761, 762, 665, 666, 661, 662
394, 736, 735, 760, 761, 666, 667, 660, 661
395, 735, 734, 759, 760, 667, 668, 659, 660
396, 734, 733, 758, 759, 668, 669, 658, 659
397, 733, 732, 757, 758, 669, 670, 657, 658
398, 732, 731, 756, 757, 670, 671, 656, 657
399, 731, 730, 755, 756, 671, 672, 655, 656
400, 730, 729, 754, 755, 672, 673, 654, 655
401, 729, 728, 753, 754, 673, 674, 653, 654
402, 728, 727, 752, 753, 674, 675, 652, 653
403, 727, 726, 751, 752, 675, 676, 651, 652
404, 726, 725, 750, 751, 676, 677, 650, 651
405, 725, 724, 749, 750, 677, 678, 649, 650
406, 724, 723, 748, 749, 678, 679, 648, 649
407, 723, 722, 747, 748, 679, 680, 647, 648
408, 722, 721, 746, 747, 680, 681, 646, 647
409, 721, 720, 745, 746, 681, 682, 645, 646
410, 720, 719, 744, 745, 682, 683, 644, 645
411, 719, 718, 743, 744, 683, 684, 643, 644
412, 718, 717, 742, 743, 684, 685, 642, 643
413, 717, 716, 741, 742, 685, 686, 641, 642
414, 716, 715, 740, 741, 686, 687, 640, 641
415, 715, 714, 739, 740, 687, 688, 639, 640
416, 714,  52,  53, 739, 688,  45,  46, 639
417,  45, 688, 589,  41,  31, 513, 563,  38
418, 688, 687, 590, 589, 513, 512, 562, 563
419, 687, 686, 591, 590, 512, 511, 561, 562
420, 686, 685, 592, 591, 511, 510, 560, 561
421, 685, 684, 593, 592, 510, 509, 559, 560
422, 684, 683, 594, 593, 509, 508, 558, 559
423, 683, 682, 595, 594, 508, 507, 557, 558
424, 682, 681, 596, 595, 507, 506, 556, 557
425, 681, 680, 597, 596, 506, 505, 555, 556
426, 680, 679, 598, 597, 505, 504, 554, 555
427, 679, 678, 599, 598, 504, 503, 553, 554
428, 678, 677, 600, 599, 503, 502, 552, 553
429, 677, 676, 601, 600, 502, 501, 551, 552
430, 676, 675, 602, 601, 501, 500, 550, 551
431, 675, 674, 603, 602, 500, 499, 549, 550
432, 674, 673, 604, 603, 499, 498, 548, 549
433, 673, 672, 605, 604, 498, 497, 547, 548
434, 672, 671, 606, 605, 497, 496, 546, 547
435, 671, 670, 607, 606, 496, 495, 545, 546
436, 670, 669, 608, 607, 495, 494, 544, 545
437, 669, 668, 609, 608, 494, 493, 543, 544
438, 668, 667, 610, 609, 493, 492, 542, 543
439, 667, 666, 611, 610, 492, 491, 541, 542
440, 666, 665, 612, 611, 491, 490, 540, 541
441, 665, 664, 613, 612, 490, 489, 539, 540
442, 664,  48,  42, 613, 489,  34,  37, 539
443,  57, 789, 838,  60,  51, 713, 788,  56
444, 789, 790, 837, 838, 713, 712, 787, 788
445, 790, 791, 836, 837, 712, 711, 786, 787
446, 791, 792, 835, 836, 711, 710, 785, 786
447, 792, 793, 834, 835, 710, 709, 784, 785
448, 793, 794, 833, 834, 709, 708, 783, 784
449, 794, 795, 832, 833, 708, 707, 782, 783
450, 795, 796, 831, 832, 707, 706, 781, 782
451, 796, 797, 830, 831, 706, 705, 780, 781
452, 797, 798, 829, 830, 705, 704, 779, 780
453, 798, 799, 828, 829, 704, 703, 778, 779
454, 799, 800, 827, 828, 703, 702, 777, 778
455, 800, 801, 826, 827, 702, 701, 776, 777
456, 801, 802, 825, 826, 701, 700, 775, 776
457, 802, 803, 824, 825, 700, 699, 774, 775
458, 803, 804, 823, 824, 699, 698, 773, 774
459, 804, 805, 822, 823, 698, 697, 772, 773
460, 805, 806, 821, 822, 697, 696, 771, 772
461, 806, 807, 820, 821, 696, 695, 770, 771
462, 807, 808, 819, 820, 695, 694, 769, 770
463, 808, 809, 818, 819, 694, 693, 768, 769
464, 809, 810, 817, 818, 693, 692, 767, 768
465, 810, 811, 816, 817, 692, 691, 766, 767
466, 811, 812, 815, 816, 691, 690, 765, 766
467, 812, 813, 814, 815, 690, 689, 764, 765
468, 813,  58,  59, 814, 689,  50,  55, 764
469,  61,  58, 813, 863,  49,  50, 689, 738
470, 863, 813, 812, 862, 738, 689, 690, 737
471, 862, 812, 811, 861, 737, 690, 691, 736
472, 861, 811, 810, 860, 736, 691, 692, 735
473, 860, 810, 809, 859, 735, 692, 693, 734
474, 859, 809, 808, 858, 734, 693, 694, 733
475, 858, 808, 807, 857, 733, 694, 695, 732
476, 857, 807, 806, 856, 732, 695, 696, 731
477, 856, 806, 805, 855, 731, 696, 697, 730
478, 855, 805, 804, 854, 730, 697, 698, 729
479, 854, 804, 803, 853, 729, 698, 699, 728
480, 853, 803, 802, 852, 728, 699, 700, 727
481, 852, 802, 801, 851, 727, 700, 701, 726
482, 851, 801, 800, 850, 726, 701, 702, 725
483, 850, 800, 799, 849, 725, 702, 703, 724
484, 849, 799, 798, 848, 724, 703, 704, 723
485, 848, 798, 797, 847, 723, 704, 705, 722
486, 847, 797, 796, 846, 722, 705, 706, 721
487, 846, 796, 795, 845, 721, 706, 707, 720
488, 845, 795, 794, 844, 720, 707, 708, 719
489, 844, 794, 793, 843, 719, 708, 709, 718
490, 843, 793, 792, 842, 718, 709, 710, 717
491, 842, 792, 791, 841, 717, 710, 711, 716
492, 841, 791, 790, 840, 716, 711, 712, 715
493, 840, 790, 789, 839, 715, 712, 713, 714
494, 839, 789,  57,  62, 714, 713,  51,  52
495,  51, 713, 788,  56,  41, 589, 638,  44
496, 713, 712, 787, 788, 589, 590, 637, 638
497, 712, 711, 786, 787, 590, 591, 636, 637
498, 711, 710, 785, 786, 591, 592, 635, 636
499, 710, 709, 784, 785, 592, 593, 634, 635
500, 709, 708, 783, 784, 593, 594, 633, 634
501, 708, 707, 782, 783, 594, 595, 632, 633
502, 707, 706, 781, 782, 595, 596, 631, 632
503, 706, 705, 780, 781, 596, 597, 630, 631
504, 705, 704, 779, 780, 597, 598, 629, 630
505, 704, 703, 778, 779, 598, 599, 628, 629
506, 703, 702, 777, 778, 599, 600, 627, 628
507, 702, 701, 776, 777, 600, 601, 626, 627
508, 701, 700, 775, 776, 601, 602, 625, 626
509, 700, 699, 774, 775, 602, 603, 624, 625
510, 699, 698, 773, 774, 603, 604, 623, 624
511, 698, 697, 772, 773, 604, 605, 622, 623
512, 697, 696, 771, 772, 605, 606, 621, 622
513, 696, 695, 770, 771, 606, 607, 620, 621
514, 695, 694, 769, 770, 607, 608, 619, 620
515, 694, 693, 768, 769, 608, 609, 618, 619
516, 693, 692, 767, 768, 609, 610, 617, 618
517, 692, 691, 766, 767, 610, 611, 616, 617
518, 691, 690, 765, 766, 611, 612, 615, 616
519, 690, 689, 764, 765, 612, 613, 614, 615
520, 689,  50,  55, 764, 613,  42,  43, 614
521,  63, 864, 913,  66,  61, 863, 938,  68
522, 864, 865, 912, 913, 863, 862, 937, 938
523, 865, 866, 911, 912, 862, 861, 936, 937
524, 866, 867, 910, 911, 861, 860, 935, 936
525, 867, 868, 909, 910, 860, 859, 934, 935
526, 868, 869, 908, 909, 859, 858, 933, 934
527, 869, 870, 907, 908, 858, 857, 932, 933
528, 870, 871, 906, 907, 857, 856, 931, 932
529, 871, 872, 905, 906, 856, 855, 930, 931
530, 872, 873, 904, 905, 855, 854, 929, 930
531, 873, 874, 903, 904, 854, 853, 928, 929
532, 874, 875, 902, 903, 853, 852, 927, 928
533, 875, 876, 901, 902, 852, 851, 926, 927
534, 876, 877, 900, 901, 851, 850, 925, 926
535, 877, 878, 899, 900, 850, 849, 924, 925
536, 878, 879, 898, 899, 849, 848, 923, 924
537, 879, 880, 897, 898, 848, 847, 922, 923
538, 880, 881, 896, 897, 847, 846, 921, 922
539, 881, 882, 895, 896, 846, 845, 920, 921
540, 882, 883, 894, 895, 845, 844, 919, 920
541, 883, 884, 893, 894, 844, 843, 918, 919
542, 884, 885, 892, 893, 843, 842, 917, 918
543, 885, 886, 891, 892, 842, 841, 916, 917
544, 886, 887, 890, 891, 841, 840, 915, 916
545, 887, 888, 889, 890, 840, 839, 914, 915
546, 888,  64,  65, 889, 839,  62,  67, 914
547,  69,  70, 939, 988,  60,  57, 789, 838
548, 988, 939, 940, 987, 838, 789, 790, 837
549, 987, 940, 941, 986, 837, 790, 791, 836
550, 986, 941, 942, 985, 836, 791, 792, 835
551, 985, 942, 943, 984, 835, 792, 793, 834
552, 984, 943, 944, 983, 834, 793, 794, 833
553, 983, 944, 945, 982, 833, 794, 795, 832
554, 982, 945, 946, 981, 832, 795, 796, 831
555, 981, 946, 947, 980, 831, 796, 797, 830
556, 980, 947, 948, 979, 830, 797, 798, 829
557, 979, 948, 949, 978, 829, 798, 799, 828
558, 978, 949, 950, 977, 828, 799, 800, 827
559, 977, 950, 951, 976, 827, 800, 801, 826
560, 976, 951, 952, 975, 826, 801, 802, 825
561, 975, 952, 953, 974, 825, 802, 803, 824
562, 974, 953, 954, 973, 824, 803, 804, 823
563, 973, 954, 955, 972, 823, 804, 805, 822
564, 972, 955, 956, 971, 822, 805, 806, 821
565, 971, 956, 957, 970, 821, 806, 807, 820
566, 970, 957, 958, 969, 820, 807, 808, 819
567, 969, 958, 959, 968, 819, 808, 809, 818
568, 968, 959, 960, 967, 818, 809, 810, 817
569, 967, 960, 961, 966, 817, 810, 811, 816
570, 966, 961, 962, 965, 816, 811, 812, 815
571, 965, 962, 963, 964, 815, 812, 813, 814
572, 964, 963,  71,  72, 814, 813,  58,  59
573,  61, 863, 938,  68,  49, 738, 763,  54
574, 863, 862, 937, 938, 738, 737, 762, 763
575, 862, 861, 936, 937, 737, 736, 761, 762
576, 861, 860, 935, 936, 736, 735, 760, 761
577, 860, 859, 934, 935, 735, 734, 759, 760
578, 859, 858, 933, 934, 734, 733, 758, 759
579, 858, 857, 932, 933, 733, 732, 757, 758
580, 857, 856, 931, 932, 732, 731, 756, 757
581, 856, 855, 930, 931, 731, 730, 755, 756
582, 855, 854, 929, 930, 730, 729, 754, 755
583, 854, 853, 928, 929, 729, 728, 753, 754
584, 853, 852, 927, 928, 728, 727, 752, 753
585, 852, 851, 926, 927, 727, 726, 751, 752
586, 851, 850, 925, 926, 726, 725, 750, 751
587, 850, 849, 924, 925, 725, 724, 749, 750
588, 849, 848, 923, 924, 724, 723, 748, 749
589, 848, 847, 922, 923, 723, 722, 747, 748
590, 847, 846, 921, 922, 722, 721, 746, 747
591, 846, 845, 920, 921, 721, 720, 745, 746
592, 845, 844, 919, 920, 720, 719, 744, 745
593, 844, 843, 918, 919, 719, 718, 743, 744
594, 843, 842, 917, 918, 718, 717, 742, 743
595, 842, 841, 916, 917, 717, 716, 741, 742
596, 841, 840, 915, 916, 716, 715, 740, 741
597, 840, 839, 914, 915, 715, 714, 739, 740
598, 839,  62,  67, 914, 714,  52,  53, 739
599,   73,  989, 1038,   76,   71,  963,  864,   63
600,  989,  990, 1037, 1038,  963,  962,  865,  864
601,  990,  991, 1036, 1037,  962,  961,  866,  865
602,  991,  992, 1035, 1036,  961,  960,  867,  866
603,  992,  993, 1034, 1035,  960,  959,  868,  867
604,  993,  994, 1033, 1034,  959,  958,  869,  868
605,  994,  995, 1032, 1033,  958,  957,  870,  869
606,  995,  996, 1031, 1032,  957,  956,  871,  870
607,  996,  997, 1030, 1031,  956,  955,  872,  871
608,  997,  998, 1029, 1030,  955,  954,  873,  872
609,  998,  999, 1028, 1029,  954,  953,  874,  873
610,  999, 1000, 1027, 1028,  953,  952,  875,  874
611, 1000, 1001, 1026, 1027,  952,  951,  876,  875
612, 1001, 1002, 1025, 1026,  951,  950,  877,  876
613, 1002, 1003, 1024, 1025,  950,  949,  878,  877
614, 1003, 1004, 1023, 1024,  949,  948,  879,  878
615, 1004, 1005, 1022, 1023,  948,  947,  880,  879
616, 1005, 1006, 1021, 1022,  947,  946,  881,  880
617, 1006, 1007, 1020, 1021,  946,  945,  882,  881
618, 1007, 1008, 1019, 1020,  945,  944,  883,  882
619, 1008, 1009, 1018, 1019,  944,  943,  884,  883
620, 1009, 1010, 1017, 1018,  943,  942,  885,  884
621, 1010, 1011, 1016, 1017,  942,  941,  886,  885
622, 1011, 1012, 1015, 1016,  941,  940,  887,  886
623, 1012, 1013, 1014, 1015,  940,  939,  888,  887
624, 1013,   74,   75, 1014,  939,   70,   64,  888
625,   77,   74, 1013, 1063,   69,   70,  939,  988
626, 1063, 1013, 1012, 1062,  988,  939,  940,  987
627, 1062, 1012, 1011, 1061,  987,  940,  941,  986
628, 1061, 1011, 1010, 1060,  986,  941,  942,  985
629, 1060, 1010, 1009, 1059,  985,  942,  943,  984
630, 1059, 1009, 1008, 1058,  984,  943,  944,  983
631, 1058, 1008, 1007, 1057,  983,  944,  945,  982
632, 1057, 1007, 1006, 1056,  982,  945,  946,  981
633, 1056, 1006, 1005, 1055,  981,  946,  947,  980
634, 1055, 1005, 1004, 1054,  980,  947,  948,  979
635, 1054, 1004, 1003, 1053,  979,  948,  949,  978
636, 1053, 1003, 1002, 1052,  978,  949,  950,  977
637, 1052, 1002, 1001, 1051,  977,  950,  951,  976
638, 1051, 1001, 1000, 1050,  976,  951,  952,  975
639, 1050, 1000,  999, 1049,  975,  952,  953,  974
640, 1049,  999,  998, 1048,  974,  953,  954,  973
641, 1048,  998,  997, 1047,  973,  954,  955,  972
642, 1047,  997,  996, 1046,  972,  955,  956,  971
643, 1046,  996,  995, 1045,  971,  956,  957,  970
644, 1045,  995,  994, 1044,  970,  957,  958,  969
645, 1044,  994,  993, 1043,  969,  958,  959,  968
646, 1043,  993,  992, 1042,  968,  959,  960,  967
647, 1042,  992,  991, 1041,  967,  960,  961,  966
648, 1041,  991,  990, 1040,  966,  961,  962,  965
649, 1040,  990,  989, 1039,  965,  962,  963,  964
650, 1039,  989,   73,   78,  964,  963,   71,   72
651,  71, 963, 864,  63,  58, 813, 863,  61
652, 963, 962, 865, 864, 813, 812, 862, 863
653, 962, 961, 866, 865, 812, 811, 861, 862
654, 961, 960, 867, 866, 811, 810, 860, 861
655, 960, 959, 868, 867, 810, 809, 859, 860
656, 959, 958, 869, 868, 809, 808, 858, 859
657, 958, 957, 870, 869, 808, 807, 857, 858
658, 957, 956, 871, 870, 807, 806, 856, 857
659, 956, 955, 872, 871, 806, 805, 855, 856
660, 955, 954, 873, 872, 805, 804, 854, 855
661, 954, 953, 874, 873, 804, 803, 853, 854
662, 953, 952, 875, 874, 803, 802, 852, 853
663, 952, 951, 876, 875, 802, 801, 851, 852
664, 951, 950, 877, 876, 801, 800, 850, 851
665, 950, 949, 878, 877, 800, 799, 849, 850
666, 949, 948, 879, 878, 799, 798, 848, 849
667, 948, 947, 880, 879, 798, 797, 847, 848
668, 947, 946, 881, 880, 797, 796, 846, 847
669, 946, 945, 882, 881, 796, 795, 845, 846
670, 945, 944, 883, 882, 795, 794, 844, 845
671, 944, 943, 884, 883, 794, 793, 843, 844
672, 943, 942, 885, 884, 793, 792, 842, 843
673, 942, 941, 886, 885, 792, 791, 841, 842
674, 941, 940, 887, 886, 791, 790, 840, 841
675, 940, 939, 888, 887, 790, 789, 839, 840
676, 939,  70,  64, 888, 789,  57,  62, 839
677,   75, 1014, 1114,   84,   79, 1064, 1113,   82
678, 1014, 1015, 1115, 1114, 1064, 1065, 1112, 1113
679, 1015, 1016, 1116, 1115, 1065, 1066, 1111, 1112
680, 1016, 1017, 1117, 1116, 1066, 1067, 1110, 1111
681, 1017, 1018, 1118, 1117, 1067, 1068, 1109, 1110
682, 1018, 1019, 1119, 1118, 1068, 1069, 1108, 1109
683, 1019, 1020, 1120, 1119, 1069, 1070, 1107, 1108
684, 1020, 1021, 1121, 1120, 1070, 1071, 1106, 1107
685, 1021, 1022, 1122, 1121, 1071, 1072, 1105, 1106
686, 1022, 1023, 1123, 1122, 1072, 1073, 1104, 1105
687, 1023, 1024, 1124, 1123, 1073, 1074, 1103, 1104
688, 1024, 1025, 1125, 1124, 1074, 1075, 1102, 1103
689, 1025, 1026, 1126, 1125, 1075, 1076, 1101, 1102
690, 1026, 1027, 1127, 1126, 1076, 1077, 1100, 1101
691, 1027, 1028, 1128, 1127, 1077, 1078, 1099, 1100
692, 1028, 1029, 1129, 1128, 1078, 1079, 1098, 1099
693, 1029, 1030, 1130, 1129, 1079, 1080, 1097, 1098
694, 1030, 1031, 1131, 1130, 1080, 1081, 1096, 1097
695, 1031, 1032, 1132, 1131, 1081, 1082, 1095, 1096
696, 1032, 1033, 1133, 1132, 1082, 1083, 1094, 1095
697, 1033, 1034, 1134, 1133, 1083, 1084, 1093, 1094
698, 1034, 1035, 1135, 1134, 1084, 1085, 1092, 1093
699, 1035, 1036, 1136, 1135, 1085, 1086, 1091, 1092
700, 1036, 1037, 1137, 1136, 1086, 1087, 1090, 1091
701, 1037, 1038, 1138, 1137, 1087, 1088, 1089, 1090
702, 1038,   76,   83, 1138, 1088,   80,   81, 1089
703,   74, 1013, 1014,   75,   85, 1139, 1064,   79
704, 1013, 1012, 1015, 1014, 1139, 1140, 1065, 1064
705, 1012, 1011, 1016, 1015, 1140, 1141, 1066, 1065
706, 1011, 1010, 1017, 1016, 1141, 1142, 1067, 1066
707, 1010, 1009, 1018, 1017, 1142, 1143, 1068, 1067
708, 1009, 1008, 1019, 1018, 1143, 1144, 1069, 1068
709, 1008, 1007, 1020, 1019, 1144, 1145, 1070, 1069
710, 1007, 1006, 1021, 1020, 1145, 1146, 1071, 1070
711, 1006, 1005, 1022, 1021, 1146, 1147, 1072, 1071
712, 1005, 1004, 1023, 1022, 1147, 1148, 1073, 1072
713, 1004, 1003, 1024, 1023, 1148, 1149, 1074, 1073
714, 1003, 1002, 1025, 1024, 1149, 1150, 1075, 1074
715, 1002, 1001, 1026, 1025, 1150, 1151, 1076, 1075
716, 1001, 1000, 1027, 1026, 1151, 1152, 1077, 1076
717, 1000,  999, 1028, 1027, 1152, 1153, 1078, 1077
718,  999,  998, 1029, 1028, 1153, 1154, 1079, 1078
719,  998,  997, 1030, 1029, 1154, 1155, 1080, 1079
720,  997,  996, 1031, 1030, 1155, 1156, 1081, 1080
721,  996,  995, 1032, 1031, 1156, 1157, 1082, 1081
722,  995,  994, 1033, 1032, 1157, 1158, 1083, 1082
723,  994,  993, 1034, 1033, 1158, 1159, 1084, 1083
724,  993,  992, 1035, 1034, 1159, 1160, 1085, 1084
725,  992,  991, 1036, 1035, 1160, 1161, 1086, 1085
726,  991,  990, 1037, 1036, 1161, 1162, 1087, 1086
727,  990,  989, 1038, 1037, 1162, 1163, 1088, 1087
728,  989,   73,   76, 1038, 1163,   86,   80, 1088
729,   76, 1038, 1138,   83,   63,  864,  913,   66
730, 1038, 1037, 1137, 1138,  864,  865,  912,  913
731, 1037, 1036, 1136, 1137,  865,  866,  911,  912
732, 1036, 1035, 1135, 1136,  866,  867,  910,  911
733, 1035, 1034, 1134, 1135,  867,  868,  909,  910
734, 1034, 1033, 1133, 1134,  868,  869,  908,  909
735, 1033, 1032, 1132, 1133,  869,  870,  907,  908
736, 1032, 1031, 1131, 1132,  870,  871,  906,  907
737, 1031, 1030, 1130, 1131,  871,  872,  905,  906
738, 1030, 1029, 1129, 1130,  872,  873,  904,  905
739, 1029, 1028, 1128, 1129,  873,  874,  903,  904
740, 1028, 1027, 1127, 1128,  874,  875,  902,  903
741, 1027, 1026, 1126, 1127,  875,  876,  901,  902
742, 1026, 1025, 1125, 1126,  876,  877,  900,  901
743, 1025, 1024, 1124, 1125,  877,  878,  899,  900
744, 1024, 1023, 1123, 1124,  878,  879,  898,  899
745, 1023, 1022, 1122, 1123,  879,  880,  897,  898
746, 1022, 1021, 1121, 1122,  880,  881,  896,  897
747, 1021, 1020, 1120, 1121,  881,  882,  895,  896
748, 1020, 1019, 1119, 1120,  882,  883,  894,  895
749, 1019, 1018, 1118, 1119,  883,  884,  893,  894
750, 1018, 1017, 1117, 1118,  884,  885,  892,  893
751, 1017, 1016, 1116, 1117,  885,  886,  891,  892
752, 1016, 1015, 1115, 1116,  886,  887,  890,  891
753, 1015, 1014, 1114, 1115,  887,  888,  889,  890
754, 1014,   75,   84, 1114,  888,   64,   65,  889
755, 1013, 1063, 1188, 1139,   74,   77,   87,   85
756, 1012, 1062, 1187, 1140, 1013, 1063, 1188, 1139
757, 1011, 1061, 1186, 1141, 1012, 1062, 1187, 1140
758, 1010, 1060, 1185, 1142, 1011, 1061, 1186, 1141
759, 1009, 1059, 1184, 1143, 1010, 1060, 1185, 1142
760, 1008, 1058, 1183, 1144, 1009, 1059, 1184, 1143
761, 1007, 1057, 1182, 1145, 1008, 1058, 1183, 1144
762, 1006, 1056, 1181, 1146, 1007, 1057, 1182, 1145
763, 1005, 1055, 1180, 1147, 1006, 1056, 1181, 1146
764, 1004, 1054, 1179, 1148, 1005, 1055, 1180, 1147
765, 1003, 1053, 1178, 1149, 1004, 1054, 1179, 1148
766, 1002, 1052, 1177, 1150, 1003, 1053, 1178, 1149
767, 1001, 1051, 1176, 1151, 1002, 1052, 1177, 1150
768, 1000, 1050, 1175, 1152, 1001, 1051, 1176, 1151
769,  999, 1049, 1174, 1153, 1000, 1050, 1175, 1152
770,  998, 1048, 1173, 1154,  999, 1049, 1174, 1153
771,  997, 1047, 1172, 1155,  998, 1048, 1173, 1154
772,  996, 1046, 1171, 1156,  997, 1047, 1172, 1155
773,  995, 1045, 1170, 1157,  996, 1046, 1171, 1156
774,  994, 1044, 1169, 1158,  995, 1045, 1170, 1157
775,  993, 1043, 1168, 1159,  994, 1044, 1169, 1158
776,  992, 1042, 1167, 1160,  993, 1043, 1168, 1159
777,  991, 1041, 1166, 1161,  992, 1042, 1167, 1160
778,  990, 1040, 1165, 1162,  991, 1041, 1166, 1161
779,  989, 1039, 1164, 1163,  990, 1040, 1165, 1162
780,   73,   78,   88,   86,  989, 1039, 1164, 1163
*Nset, nset=ALL_COATING, generate
    1,  1188,     1
*Elset, elset=ALL_COATING, generate
   1,  780,    1
*Nset, nset=SET_SYM_X0
  2,  3,  6,  7, 11, 12, 15, 16, 18, 19, 23, 24, 26, 27, 30, 31
 32, 35, 38, 40, 41, 44, 45, 46, 51, 52, 53, 56, 57, 60, 62, 64
 65, 67, 69, 70, 74, 75, 77, 79, 82, 84, 85, 87
*Elset, elset=SET_SYM_X0
  26,  52,  78, 104, 130, 156, 182, 208, 209, 235, 286, 287, 313, 339, 390, 416
 417, 443, 494, 495, 546, 547, 598, 624, 625, 676, 677, 703, 754, 755
*Nset, nset=SET_ELECTRODE_INLET
   79,   80,   81,   82,   85,   86,   87,   88, 1064, 1065, 1066, 1067, 1068, 1069, 1070, 1071
 1072, 1073, 1074, 1075, 1076, 1077, 1078, 1079, 1080, 1081, 1082, 1083, 1084, 1085, 1086, 1087
 1088, 1089, 1090, 1091, 1092, 1093, 1094, 1095, 1096, 1097, 1098, 1099, 1100, 1101, 1102, 1103
 1104, 1105, 1106, 1107, 1108, 1109, 1110, 1111, 1112, 1113, 1139, 1140, 1141, 1142, 1143, 1144
 1145, 1146, 1147, 1148, 1149, 1150, 1151, 1152, 1153, 1154, 1155, 1156, 1157, 1158, 1159, 1160
 1161, 1162, 1163, 1164, 1165, 1166, 1167, 1168, 1169, 1170, 1171, 1172, 1173, 1174, 1175, 1176
 1177, 1178, 1179, 1180, 1181, 1182, 1183, 1184, 1185, 1186, 1187, 1188
*Elset, elset=SET_ELECTRODE_INLET
 677, 678, 679, 680, 681, 682, 683, 684, 685, 686, 687, 688, 689, 690, 691, 692
 693, 694, 695, 696, 697, 698, 699, 700, 701, 702, 703, 704, 705, 706, 707, 708
 709, 710, 711, 712, 713, 714, 715, 716, 717, 718, 719, 720, 721, 722, 723, 724
 725, 726, 727, 728, 755, 756, 757, 758, 759, 760, 761, 762, 763, 764, 765, 766
 767, 768, 769, 770, 771, 772, 773, 774, 775, 776, 777, 778, 779, 780
*Nset, nset=SET_ELECTRODE_OUTLET
  17,  18,  19,  20,  21,  22,  23,  24, 289, 290, 291, 292, 293, 294, 295, 296
 297, 298, 299, 300, 301, 302, 303, 304, 305, 306, 307, 308, 309, 310, 311, 312
 313, 314, 315, 316, 317, 318, 319, 320, 321, 322, 323, 324, 325, 326, 327, 328
 329, 330, 331, 332, 333, 334, 335, 336, 337, 338, 339, 340, 341, 342, 343, 344
 345, 346, 347, 348, 349, 350, 351, 352, 353, 354, 355, 356, 357, 358, 359, 360
 361, 362, 363, 364, 365, 366, 367, 368, 369, 370, 371, 372, 373, 374, 375, 376
 377, 378, 379, 380, 381, 382, 383, 384, 385, 386, 387, 388
*Elset, elset=SET_ELECTRODE_OUTLET, generate
  53,  130,    1
*Elset, elset=_S_COATING_TOP_S4, internal
  27,  28,  29,  30,  31,  32,  33,  34,  35,  36,  37,  38,  39,  40,  41,  42
  43,  44,  45,  46,  47,  48,  49,  50,  51,  52,  79,  80,  81,  82,  83,  84
  85,  86,  87,  88,  89,  90,  91,  92,  93,  94,  95,  96,  97,  98,  99, 100
 101, 102, 103, 104, 157, 158, 159, 160, 161, 162, 163, 164, 165, 166, 167, 168
 169, 170, 171, 172, 173, 174, 175, 176, 177, 178, 179, 180, 181, 182, 755, 756
 757, 758, 759, 760, 761, 762, 763, 764, 765, 766, 767, 768, 769, 770, 771, 772
 773, 774, 775, 776, 777, 778, 779, 780
*Elset, elset=_S_COATING_TOP_S5, internal
 287, 288, 289, 290, 291, 292, 293, 294, 295, 296, 297, 298, 299, 300, 301, 302
 303, 304, 305, 306, 307, 308, 309, 310, 311, 312, 339, 340, 341, 342, 343, 344
 345, 346, 347, 348, 349, 350, 351, 352, 353, 354, 355, 356, 357, 358, 359, 360
 361, 362, 363, 364, 443, 444, 445, 446, 447, 448, 449, 450, 451, 452, 453, 454
 455, 456, 457, 458, 459, 460, 461, 462, 463, 464, 465, 466, 467, 468, 495, 496
 497, 498, 499, 500, 501, 502, 503, 504, 505, 506, 507, 508, 509, 510, 511, 512
 513, 514, 515, 516, 517, 518, 519, 520
*Elset, elset=_S_COATING_TOP_S6, internal
 547, 548, 549, 550, 551, 552, 553, 554, 555, 556, 557, 558, 559, 560, 561, 562
 563, 564, 565, 566, 567, 568, 569, 570, 571, 572, 625, 626, 627, 628, 629, 630
 631, 632, 633, 634, 635, 636, 637, 638, 639, 640, 641, 642, 643, 644, 645, 646
 647, 648, 649, 650
*Surface, type=ELEMENT, name=S_COATING_TOP
_S_COATING_TOP_S4, S4
_S_COATING_TOP_S5, S5
_S_COATING_TOP_S6, S6
** Section: SEC_COATING
*Solid Section, elset=ALL_COATING, material=COATING_DPC
,
*End Part
**  
*Part, name=P_COLLECTOR
*Node
      1,         675.,           0.,          60.
      2,         675., 0.00749999983,          60.
      3,         675., 0.00749999983,          80.
      4,         675.,           0.,          80.
      5,           0., 0.00749999983,          60.
      6,           0., 0.00749999983,          80.
      7,           0.,           0.,          80.
      8,           0.,           0.,          60.
      9,         675., 0.00749999983,          50.
     10,         675.,           0.,          50.
     11,         675.,           0.,          45.
     12,         675., 0.00749999983,          45.
     13,           0.,           0.,          50.
     14,           0.,           0.,          45.
     15,           0., 0.00749999983,          45.
     16,           0., 0.00749999983,          50.
     17,         675., 0.00749999983,          42.
     18,         675.,           0.,          42.
     19,         675.,           0.,          40.
     20,         675., 0.00749999983,          40.
     21,           0.,           0.,          42.
     22,           0.,           0.,          40.
     23,           0., 0.00749999983,          40.
     24,           0., 0.00749999983,          42.
     25,         675., 0.00749999983,          38.
     26,         675.,           0.,          38.
     27,         675.,           0.,          35.
     28,         675., 0.00749999983,          35.
     29,           0.,           0.,          38.
     30,           0.,           0.,          35.
     31,           0., 0.00749999983,          35.
     32,           0., 0.00749999983,          38.
     33,         675., 0.00749999983,          30.
     34,         675.,           0.,          30.
     35,         675.,           0.,          20.
     36,         675., 0.00749999983,          20.
     37,           0.,           0.,          30.
     38,           0.,           0.,          20.
     39,           0., 0.00749999983,          20.
     40,           0., 0.00749999983,          30.
     41,           0., 0.00749999983,           0.
     42,           0.,           0.,           0.
     43,         675., 0.00749999983,           0.
     44,         675.,           0.,           0.
     45,         650.,           0.,          80.
     46,         625.,           0.,          80.
     47,         600.,           0.,          80.
     48,         575.,           0.,          80.
     49,         550.,           0.,          80.
     50,         525.,           0.,          80.
     51,         500.,           0.,          80.
     52,         475.,           0.,          80.
     53,         450.,           0.,          80.
     54,         425.,           0.,          80.
     55,         400.,           0.,          80.
     56,         375.,           0.,          80.
     57,         350.,           0.,          80.
     58,         325.,           0.,          80.
     59,         300.,           0.,          80.
     60,         275.,           0.,          80.
     61,         250.,           0.,          80.
     62,         225.,           0.,          80.
     63,         200.,           0.,          80.
     64,         175.,           0.,          80.
     65,         150.,           0.,          80.
     66,         125.,           0.,          80.
     67,         100.,           0.,          80.
     68,          75.,           0.,          80.
     69,          50.,           0.,          80.
     70,          25.,           0.,          80.
     71,          25.,           0.,          60.
     72,          50.,           0.,          60.
     73,          75.,           0.,          60.
     74,         100.,           0.,          60.
     75,         125.,           0.,          60.
     76,         150.,           0.,          60.
     77,         175.,           0.,          60.
     78,         200.,           0.,          60.
     79,         225.,           0.,          60.
     80,         250.,           0.,          60.
     81,         275.,           0.,          60.
     82,         300.,           0.,          60.
     83,         325.,           0.,          60.
     84,         350.,           0.,          60.
     85,         375.,           0.,          60.
     86,         400.,           0.,          60.
     87,         425.,           0.,          60.
     88,         450.,           0.,          60.
     89,         475.,           0.,          60.
     90,         500.,           0.,          60.
     91,         525.,           0.,          60.
     92,         550.,           0.,          60.
     93,         575.,           0.,          60.
     94,         600.,           0.,          60.
     95,         625.,           0.,          60.
     96,         650.,           0.,          60.
     97,          25., 0.00749999983,          80.
     98,          50., 0.00749999983,          80.
     99,          75., 0.00749999983,          80.
    100,         100., 0.00749999983,          80.
    101,         125., 0.00749999983,          80.
    102,         150., 0.00749999983,          80.
    103,         175., 0.00749999983,          80.
    104,         200., 0.00749999983,          80.
    105,         225., 0.00749999983,          80.
    106,         250., 0.00749999983,          80.
    107,         275., 0.00749999983,          80.
    108,         300., 0.00749999983,          80.
    109,         325., 0.00749999983,          80.
    110,         350., 0.00749999983,          80.
    111,         375., 0.00749999983,          80.
    112,         400., 0.00749999983,          80.
    113,         425., 0.00749999983,          80.
    114,         450., 0.00749999983,          80.
    115,         475., 0.00749999983,          80.
    116,         500., 0.00749999983,          80.
    117,         525., 0.00749999983,          80.
    118,         550., 0.00749999983,          80.
    119,         575., 0.00749999983,          80.
    120,         600., 0.00749999983,          80.
    121,         625., 0.00749999983,          80.
    122,         650., 0.00749999983,          80.
    123,         650., 0.00749999983,          60.
    124,         625., 0.00749999983,          60.
    125,         600., 0.00749999983,          60.
    126,         575., 0.00749999983,          60.
    127,         550., 0.00749999983,          60.
    128,         525., 0.00749999983,          60.
    129,         500., 0.00749999983,          60.
    130,         475., 0.00749999983,          60.
    131,         450., 0.00749999983,          60.
    132,         425., 0.00749999983,          60.
    133,         400., 0.00749999983,          60.
    134,         375., 0.00749999983,          60.
    135,         350., 0.00749999983,          60.
    136,         325., 0.00749999983,          60.
    137,         300., 0.00749999983,          60.
    138,         275., 0.00749999983,          60.
    139,         250., 0.00749999983,          60.
    140,         225., 0.00749999983,          60.
    141,         200., 0.00749999983,          60.
    142,         175., 0.00749999983,          60.
    143,         150., 0.00749999983,          60.
    144,         125., 0.00749999983,          60.
    145,         100., 0.00749999983,          60.
    146,          75., 0.00749999983,          60.
    147,          50., 0.00749999983,          60.
    148,          25., 0.00749999983,          60.
    149,         650., 0.00749999983,          45.
    150,         625., 0.00749999983,          45.
    151,         600., 0.00749999983,          45.
    152,         575., 0.00749999983,          45.
    153,         550., 0.00749999983,          45.
    154,         525., 0.00749999983,          45.
    155,         500., 0.00749999983,          45.
    156,         475., 0.00749999983,          45.
    157,         450., 0.00749999983,          45.
    158,         425., 0.00749999983,          45.
    159,         400., 0.00749999983,          45.
    160,         375., 0.00749999983,          45.
    161,         350., 0.00749999983,          45.
    162,         325., 0.00749999983,          45.
    163,         300., 0.00749999983,          45.
    164,         275., 0.00749999983,          45.
    165,         250., 0.00749999983,          45.
    166,         225., 0.00749999983,          45.
    167,         200., 0.00749999983,          45.
    168,         175., 0.00749999983,          45.
    169,         150., 0.00749999983,          45.
    170,         125., 0.00749999983,          45.
    171,         100., 0.00749999983,          45.
    172,          75., 0.00749999983,          45.
    173,          50., 0.00749999983,          45.
    174,          25., 0.00749999983,          45.
    175,          25., 0.00749999983,          50.
    176,          50., 0.00749999983,          50.
    177,          75., 0.00749999983,          50.
    178,         100., 0.00749999983,          50.
    179,         125., 0.00749999983,          50.
    180,         150., 0.00749999983,          50.
    181,         175., 0.00749999983,          50.
    182,         200., 0.00749999983,          50.
    183,         225., 0.00749999983,          50.
    184,         250., 0.00749999983,          50.
    185,         275., 0.00749999983,          50.
    186,         300., 0.00749999983,          50.
    187,         325., 0.00749999983,          50.
    188,         350., 0.00749999983,          50.
    189,         375., 0.00749999983,          50.
    190,         400., 0.00749999983,          50.
    191,         425., 0.00749999983,          50.
    192,         450., 0.00749999983,          50.
    193,         475., 0.00749999983,          50.
    194,         500., 0.00749999983,          50.
    195,         525., 0.00749999983,          50.
    196,         550., 0.00749999983,          50.
    197,         575., 0.00749999983,          50.
    198,         600., 0.00749999983,          50.
    199,         625., 0.00749999983,          50.
    200,         650., 0.00749999983,          50.
    201,          25.,           0.,          45.
    202,          50.,           0.,          45.
    203,          75.,           0.,          45.
    204,         100.,           0.,          45.
    205,         125.,           0.,          45.
    206,         150.,           0.,          45.
    207,         175.,           0.,          45.
    208,         200.,           0.,          45.
    209,         225.,           0.,          45.
    210,         250.,           0.,          45.
    211,         275.,           0.,          45.
    212,         300.,           0.,          45.
    213,         325.,           0.,          45.
    214,         350.,           0.,          45.
    215,         375.,           0.,          45.
    216,         400.,           0.,          45.
    217,         425.,           0.,          45.
    218,         450.,           0.,          45.
    219,         475.,           0.,          45.
    220,         500.,           0.,          45.
    221,         525.,           0.,          45.
    222,         550.,           0.,          45.
    223,         575.,           0.,          45.
    224,         600.,           0.,          45.
    225,         625.,           0.,          45.
    226,         650.,           0.,          45.
    227,         650.,           0.,          50.
    228,         625.,           0.,          50.
    229,         600.,           0.,          50.
    230,         575.,           0.,          50.
    231,         550.,           0.,          50.
    232,         525.,           0.,          50.
    233,         500.,           0.,          50.
    234,         475.,           0.,          50.
    235,         450.,           0.,          50.
    236,         425.,           0.,          50.
    237,         400.,           0.,          50.
    238,         375.,           0.,          50.
    239,         350.,           0.,          50.
    240,         325.,           0.,          50.
    241,         300.,           0.,          50.
    242,         275.,           0.,          50.
    243,         250.,           0.,          50.
    244,         225.,           0.,          50.
    245,         200.,           0.,          50.
    246,         175.,           0.,          50.
    247,         150.,           0.,          50.
    248,         125.,           0.,          50.
    249,         100.,           0.,          50.
    250,          75.,           0.,          50.
    251,          50.,           0.,          50.
    252,          25.,           0.,          50.
    253,         650., 0.00749999983,          40.
    254,         625., 0.00749999983,          40.
    255,         600., 0.00749999983,          40.
    256,         575., 0.00749999983,          40.
    257,         550., 0.00749999983,          40.
    258,         525., 0.00749999983,          40.
    259,         500., 0.00749999983,          40.
    260,         475., 0.00749999983,          40.
    261,         450., 0.00749999983,          40.
    262,         425., 0.00749999983,          40.
    263,         400., 0.00749999983,          40.
    264,         375., 0.00749999983,          40.
    265,         350., 0.00749999983,          40.
    266,         325., 0.00749999983,          40.
    267,         300., 0.00749999983,          40.
    268,         275., 0.00749999983,          40.
    269,         250., 0.00749999983,          40.
    270,         225., 0.00749999983,          40.
    271,         200., 0.00749999983,          40.
    272,         175., 0.00749999983,          40.
    273,         150., 0.00749999983,          40.
    274,         125., 0.00749999983,          40.
    275,         100., 0.00749999983,          40.
    276,          75., 0.00749999983,          40.
    277,          50., 0.00749999983,          40.
    278,          25., 0.00749999983,          40.
    279,          25., 0.00749999983,          42.
    280,          50., 0.00749999983,          42.
    281,          75., 0.00749999983,          42.
    282,         100., 0.00749999983,          42.
    283,         125., 0.00749999983,          42.
    284,         150., 0.00749999983,          42.
    285,         175., 0.00749999983,          42.
    286,         200., 0.00749999983,          42.
    287,         225., 0.00749999983,          42.
    288,         250., 0.00749999983,          42.
    289,         275., 0.00749999983,          42.
    290,         300., 0.00749999983,          42.
    291,         325., 0.00749999983,          42.
    292,         350., 0.00749999983,          42.
    293,         375., 0.00749999983,          42.
    294,         400., 0.00749999983,          42.
    295,         425., 0.00749999983,          42.
    296,         450., 0.00749999983,          42.
    297,         475., 0.00749999983,          42.
    298,         500., 0.00749999983,          42.
    299,         525., 0.00749999983,          42.
    300,         550., 0.00749999983,          42.
    301,         575., 0.00749999983,          42.
    302,         600., 0.00749999983,          42.
    303,         625., 0.00749999983,          42.
    304,         650., 0.00749999983,          42.
    305,          25.,           0.,          40.
    306,          50.,           0.,          40.
    307,          75.,           0.,          40.
    308,         100.,           0.,          40.
    309,         125.,           0.,          40.
    310,         150.,           0.,          40.
    311,         175.,           0.,          40.
    312,         200.,           0.,          40.
    313,         225.,           0.,          40.
    314,         250.,           0.,          40.
    315,         275.,           0.,          40.
    316,         300.,           0.,          40.
    317,         325.,           0.,          40.
    318,         350.,           0.,          40.
    319,         375.,           0.,          40.
    320,         400.,           0.,          40.
    321,         425.,           0.,          40.
    322,         450.,           0.,          40.
    323,         475.,           0.,          40.
    324,         500.,           0.,          40.
    325,         525.,           0.,          40.
    326,         550.,           0.,          40.
    327,         575.,           0.,          40.
    328,         600.,           0.,          40.
    329,         625.,           0.,          40.
    330,         650.,           0.,          40.
    331,         650.,           0.,          42.
    332,         625.,           0.,          42.
    333,         600.,           0.,          42.
    334,         575.,           0.,          42.
    335,         550.,           0.,          42.
    336,         525.,           0.,          42.
    337,         500.,           0.,          42.
    338,         475.,           0.,          42.
    339,         450.,           0.,          42.
    340,         425.,           0.,          42.
    341,         400.,           0.,          42.
    342,         375.,           0.,          42.
    343,         350.,           0.,          42.
    344,         325.,           0.,          42.
    345,         300.,           0.,          42.
    346,         275.,           0.,          42.
    347,         250.,           0.,          42.
    348,         225.,           0.,          42.
    349,         200.,           0.,          42.
    350,         175.,           0.,          42.
    351,         150.,           0.,          42.
    352,         125.,           0.,          42.
    353,         100.,           0.,          42.
    354,          75.,           0.,          42.
    355,          50.,           0.,          42.
    356,          25.,           0.,          42.
    357,         650., 0.00749999983,          35.
    358,         625., 0.00749999983,          35.
    359,         600., 0.00749999983,          35.
    360,         575., 0.00749999983,          35.
    361,         550., 0.00749999983,          35.
    362,         525., 0.00749999983,          35.
    363,         500., 0.00749999983,          35.
    364,         475., 0.00749999983,          35.
    365,         450., 0.00749999983,          35.
    366,         425., 0.00749999983,          35.
    367,         400., 0.00749999983,          35.
    368,         375., 0.00749999983,          35.
    369,         350., 0.00749999983,          35.
    370,         325., 0.00749999983,          35.
    371,         300., 0.00749999983,          35.
    372,         275., 0.00749999983,          35.
    373,         250., 0.00749999983,          35.
    374,         225., 0.00749999983,          35.
    375,         200., 0.00749999983,          35.
    376,         175., 0.00749999983,          35.
    377,         150., 0.00749999983,          35.
    378,         125., 0.00749999983,          35.
    379,         100., 0.00749999983,          35.
    380,          75., 0.00749999983,          35.
    381,          50., 0.00749999983,          35.
    382,          25., 0.00749999983,          35.
    383,          25., 0.00749999983,          38.
    384,          50., 0.00749999983,          38.
    385,          75., 0.00749999983,          38.
    386,         100., 0.00749999983,          38.
    387,         125., 0.00749999983,          38.
    388,         150., 0.00749999983,          38.
    389,         175., 0.00749999983,          38.
    390,         200., 0.00749999983,          38.
    391,         225., 0.00749999983,          38.
    392,         250., 0.00749999983,          38.
    393,         275., 0.00749999983,          38.
    394,         300., 0.00749999983,          38.
    395,         325., 0.00749999983,          38.
    396,         350., 0.00749999983,          38.
    397,         375., 0.00749999983,          38.
    398,         400., 0.00749999983,          38.
    399,         425., 0.00749999983,          38.
    400,         450., 0.00749999983,          38.
    401,         475., 0.00749999983,          38.
    402,         500., 0.00749999983,          38.
    403,         525., 0.00749999983,          38.
    404,         550., 0.00749999983,          38.
    405,         575., 0.00749999983,          38.
    406,         600., 0.00749999983,          38.
    407,         625., 0.00749999983,          38.
    408,         650., 0.00749999983,          38.
    409,          25.,           0.,          35.
    410,          50.,           0.,          35.
    411,          75.,           0.,          35.
    412,         100.,           0.,          35.
    413,         125.,           0.,          35.
    414,         150.,           0.,          35.
    415,         175.,           0.,          35.
    416,         200.,           0.,          35.
    417,         225.,           0.,          35.
    418,         250.,           0.,          35.
    419,         275.,           0.,          35.
    420,         300.,           0.,          35.
    421,         325.,           0.,          35.
    422,         350.,           0.,          35.
    423,         375.,           0.,          35.
    424,         400.,           0.,          35.
    425,         425.,           0.,          35.
    426,         450.,           0.,          35.
    427,         475.,           0.,          35.
    428,         500.,           0.,          35.
    429,         525.,           0.,          35.
    430,         550.,           0.,          35.
    431,         575.,           0.,          35.
    432,         600.,           0.,          35.
    433,         625.,           0.,          35.
    434,         650.,           0.,          35.
    435,         650.,           0.,          38.
    436,         625.,           0.,          38.
    437,         600.,           0.,          38.
    438,         575.,           0.,          38.
    439,         550.,           0.,          38.
    440,         525.,           0.,          38.
    441,         500.,           0.,          38.
    442,         475.,           0.,          38.
    443,         450.,           0.,          38.
    444,         425.,           0.,          38.
    445,         400.,           0.,          38.
    446,         375.,           0.,          38.
    447,         350.,           0.,          38.
    448,         325.,           0.,          38.
    449,         300.,           0.,          38.
    450,         275.,           0.,          38.
    451,         250.,           0.,          38.
    452,         225.,           0.,          38.
    453,         200.,           0.,          38.
    454,         175.,           0.,          38.
    455,         150.,           0.,          38.
    456,         125.,           0.,          38.
    457,         100.,           0.,          38.
    458,          75.,           0.,          38.
    459,          50.,           0.,          38.
    460,          25.,           0.,          38.
    461,         650., 0.00749999983,          20.
    462,         625., 0.00749999983,          20.
    463,         600., 0.00749999983,          20.
    464,         575., 0.00749999983,          20.
    465,         550., 0.00749999983,          20.
    466,         525., 0.00749999983,          20.
    467,         500., 0.00749999983,          20.
    468,         475., 0.00749999983,          20.
    469,         450., 0.00749999983,          20.
    470,         425., 0.00749999983,          20.
    471,         400., 0.00749999983,          20.
    472,         375., 0.00749999983,          20.
    473,         350., 0.00749999983,          20.
    474,         325., 0.00749999983,          20.
    475,         300., 0.00749999983,          20.
    476,         275., 0.00749999983,          20.
    477,         250., 0.00749999983,          20.
    478,         225., 0.00749999983,          20.
    479,         200., 0.00749999983,          20.
    480,         175., 0.00749999983,          20.
    481,         150., 0.00749999983,          20.
    482,         125., 0.00749999983,          20.
    483,         100., 0.00749999983,          20.
    484,          75., 0.00749999983,          20.
    485,          50., 0.00749999983,          20.
    486,          25., 0.00749999983,          20.
    487,          25., 0.00749999983,          30.
    488,          50., 0.00749999983,          30.
    489,          75., 0.00749999983,          30.
    490,         100., 0.00749999983,          30.
    491,         125., 0.00749999983,          30.
    492,         150., 0.00749999983,          30.
    493,         175., 0.00749999983,          30.
    494,         200., 0.00749999983,          30.
    495,         225., 0.00749999983,          30.
    496,         250., 0.00749999983,          30.
    497,         275., 0.00749999983,          30.
    498,         300., 0.00749999983,          30.
    499,         325., 0.00749999983,          30.
    500,         350., 0.00749999983,          30.
    501,         375., 0.00749999983,          30.
    502,         400., 0.00749999983,          30.
    503,         425., 0.00749999983,          30.
    504,         450., 0.00749999983,          30.
    505,         475., 0.00749999983,          30.
    506,         500., 0.00749999983,          30.
    507,         525., 0.00749999983,          30.
    508,         550., 0.00749999983,          30.
    509,         575., 0.00749999983,          30.
    510,         600., 0.00749999983,          30.
    511,         625., 0.00749999983,          30.
    512,         650., 0.00749999983,          30.
    513,          25.,           0.,          20.
    514,          50.,           0.,          20.
    515,          75.,           0.,          20.
    516,         100.,           0.,          20.
    517,         125.,           0.,          20.
    518,         150.,           0.,          20.
    519,         175.,           0.,          20.
    520,         200.,           0.,          20.
    521,         225.,           0.,          20.
    522,         250.,           0.,          20.
    523,         275.,           0.,          20.
    524,         300.,           0.,          20.
    525,         325.,           0.,          20.
    526,         350.,           0.,          20.
    527,         375.,           0.,          20.
    528,         400.,           0.,          20.
    529,         425.,           0.,          20.
    530,         450.,           0.,          20.
    531,         475.,           0.,          20.
    532,         500.,           0.,          20.
    533,         525.,           0.,          20.
    534,         550.,           0.,          20.
    535,         575.,           0.,          20.
    536,         600.,           0.,          20.
    537,         625.,           0.,          20.
    538,         650.,           0.,          20.
    539,         650.,           0.,          30.
    540,         625.,           0.,          30.
    541,         600.,           0.,          30.
    542,         575.,           0.,          30.
    543,         550.,           0.,          30.
    544,         525.,           0.,          30.
    545,         500.,           0.,          30.
    546,         475.,           0.,          30.
    547,         450.,           0.,          30.
    548,         425.,           0.,          30.
    549,         400.,           0.,          30.
    550,         375.,           0.,          30.
    551,         350.,           0.,          30.
    552,         325.,           0.,          30.
    553,         300.,           0.,          30.
    554,         275.,           0.,          30.
    555,         250.,           0.,          30.
    556,         225.,           0.,          30.
    557,         200.,           0.,          30.
    558,         175.,           0.,          30.
    559,         150.,           0.,          30.
    560,         125.,           0.,          30.
    561,         100.,           0.,          30.
    562,          75.,           0.,          30.
    563,          50.,           0.,          30.
    564,          25.,           0.,          30.
    565,          25.,           0.,           0.
    566,          50.,           0.,           0.
    567,          75.,           0.,           0.
    568,         100.,           0.,           0.
    569,         125.,           0.,           0.
    570,         150.,           0.,           0.
    571,         175.,           0.,           0.
    572,         200.,           0.,           0.
    573,         225.,           0.,           0.
    574,         250.,           0.,           0.
    575,         275.,           0.,           0.
    576,         300.,           0.,           0.
    577,         325.,           0.,           0.
    578,         350.,           0.,           0.
    579,         375.,           0.,           0.
    580,         400.,           0.,           0.
    581,         425.,           0.,           0.
    582,         450.,           0.,           0.
    583,         475.,           0.,           0.
    584,         500.,           0.,           0.
    585,         525.,           0.,           0.
    586,         550.,           0.,           0.
    587,         575.,           0.,           0.
    588,         600.,           0.,           0.
    589,         625.,           0.,           0.
    590,         650.,           0.,           0.
    591,         650., 0.00749999983,           0.
    592,         625., 0.00749999983,           0.
    593,         600., 0.00749999983,           0.
    594,         575., 0.00749999983,           0.
    595,         550., 0.00749999983,           0.
    596,         525., 0.00749999983,           0.
    597,         500., 0.00749999983,           0.
    598,         475., 0.00749999983,           0.
    599,         450., 0.00749999983,           0.
    600,         425., 0.00749999983,           0.
    601,         400., 0.00749999983,           0.
    602,         375., 0.00749999983,           0.
    603,         350., 0.00749999983,           0.
    604,         325., 0.00749999983,           0.
    605,         300., 0.00749999983,           0.
    606,         275., 0.00749999983,           0.
    607,         250., 0.00749999983,           0.
    608,         225., 0.00749999983,           0.
    609,         200., 0.00749999983,           0.
    610,         175., 0.00749999983,           0.
    611,         150., 0.00749999983,           0.
    612,         125., 0.00749999983,           0.
    613,         100., 0.00749999983,           0.
    614,          75., 0.00749999983,           0.
    615,          50., 0.00749999983,           0.
    616,          25., 0.00749999983,           0.
*Element, type=C3D8R
 1,  96, 123, 122,  45,   1,   2,   3,   4
 2,  95, 124, 121,  46,  96, 123, 122,  45
 3,  94, 125, 120,  47,  95, 124, 121,  46
 4,  93, 126, 119,  48,  94, 125, 120,  47
 5,  92, 127, 118,  49,  93, 126, 119,  48
 6,  91, 128, 117,  50,  92, 127, 118,  49
 7,  90, 129, 116,  51,  91, 128, 117,  50
 8,  89, 130, 115,  52,  90, 129, 116,  51
 9,  88, 131, 114,  53,  89, 130, 115,  52
10,  87, 132, 113,  54,  88, 131, 114,  53
11,  86, 133, 112,  55,  87, 132, 113,  54
12,  85, 134, 111,  56,  86, 133, 112,  55
13,  84, 135, 110,  57,  85, 134, 111,  56
14,  83, 136, 109,  58,  84, 135, 110,  57
15,  82, 137, 108,  59,  83, 136, 109,  58
16,  81, 138, 107,  60,  82, 137, 108,  59
17,  80, 139, 106,  61,  81, 138, 107,  60
18,  79, 140, 105,  62,  80, 139, 106,  61
19,  78, 141, 104,  63,  79, 140, 105,  62
20,  77, 142, 103,  64,  78, 141, 104,  63
21,  76, 143, 102,  65,  77, 142, 103,  64
22,  75, 144, 101,  66,  76, 143, 102,  65
23,  74, 145, 100,  67,  75, 144, 101,  66
24,  73, 146,  99,  68,  74, 145, 100,  67
25,  72, 147,  98,  69,  73, 146,  99,  68
26,  71, 148,  97,  70,  72, 147,  98,  69
27,   8,   5,   6,   7,  71, 148,  97,  70
28, 200, 227, 226, 149,   9,  10,  11,  12
29, 199, 228, 225, 150, 200, 227, 226, 149
30, 198, 229, 224, 151, 199, 228, 225, 150
31, 197, 230, 223, 152, 198, 229, 224, 151
32, 196, 231, 222, 153, 197, 230, 223, 152
33, 195, 232, 221, 154, 196, 231, 222, 153
34, 194, 233, 220, 155, 195, 232, 221, 154
35, 193, 234, 219, 156, 194, 233, 220, 155
36, 192, 235, 218, 157, 193, 234, 219, 156
37, 191, 236, 217, 158, 192, 235, 218, 157
38, 190, 237, 216, 159, 191, 236, 217, 158
39, 189, 238, 215, 160, 190, 237, 216, 159
40, 188, 239, 214, 161, 189, 238, 215, 160
41, 187, 240, 213, 162, 188, 239, 214, 161
42, 186, 241, 212, 163, 187, 240, 213, 162
43, 185, 242, 211, 164, 186, 241, 212, 163
44, 184, 243, 210, 165, 185, 242, 211, 164
45, 183, 244, 209, 166, 184, 243, 210, 165
46, 182, 245, 208, 167, 183, 244, 209, 166
47, 181, 246, 207, 168, 182, 245, 208, 167
48, 180, 247, 206, 169, 181, 246, 207, 168
49, 179, 248, 205, 170, 180, 247, 206, 169
50, 178, 249, 204, 171, 179, 248, 205, 170
51, 177, 250, 203, 172, 178, 249, 204, 171
52, 176, 251, 202, 173, 177, 250, 203, 172
53, 175, 252, 201, 174, 176, 251, 202, 173
54,  16,  13,  14,  15, 175, 252, 201, 174
55, 123,  96, 227, 200,   2,   1,  10,   9
56, 124,  95, 228, 199, 123,  96, 227, 200
57, 125,  94, 229, 198, 124,  95, 228, 199
58, 126,  93, 230, 197, 125,  94, 229, 198
59, 127,  92, 231, 196, 126,  93, 230, 197
60, 128,  91, 232, 195, 127,  92, 231, 196
61, 129,  90, 233, 194, 128,  91, 232, 195
62, 130,  89, 234, 193, 129,  90, 233, 194
63, 131,  88, 235, 192, 130,  89, 234, 193
64, 132,  87, 236, 191, 131,  88, 235, 192
65, 133,  86, 237, 190, 132,  87, 236, 191
66, 134,  85, 238, 189, 133,  86, 237, 190
67, 135,  84, 239, 188, 134,  85, 238, 189
68, 136,  83, 240, 187, 135,  84, 239, 188
69, 137,  82, 241, 186, 136,  83, 240, 187
70, 138,  81, 242, 185, 137,  82, 241, 186
71, 139,  80, 243, 184, 138,  81, 242, 185
72, 140,  79, 244, 183, 139,  80, 243, 184
73, 141,  78, 245, 182, 140,  79, 244, 183
74, 142,  77, 246, 181, 141,  78, 245, 182
75, 143,  76, 247, 180, 142,  77, 246, 181
76, 144,  75, 248, 179, 143,  76, 247, 180
77, 145,  74, 249, 178, 144,  75, 248, 179
78, 146,  73, 250, 177, 145,  74, 249, 178
79, 147,  72, 251, 176, 146,  73, 250, 177
80, 148,  71, 252, 175, 147,  72, 251, 176
81,   5,   8,  13,  16, 148,  71, 252, 175
 82, 304, 331, 330, 253,  17,  18,  19,  20
 83, 303, 332, 329, 254, 304, 331, 330, 253
 84, 302, 333, 328, 255, 303, 332, 329, 254
 85, 301, 334, 327, 256, 302, 333, 328, 255
 86, 300, 335, 326, 257, 301, 334, 327, 256
 87, 299, 336, 325, 258, 300, 335, 326, 257
 88, 298, 337, 324, 259, 299, 336, 325, 258
 89, 297, 338, 323, 260, 298, 337, 324, 259
 90, 296, 339, 322, 261, 297, 338, 323, 260
 91, 295, 340, 321, 262, 296, 339, 322, 261
 92, 294, 341, 320, 263, 295, 340, 321, 262
 93, 293, 342, 319, 264, 294, 341, 320, 263
 94, 292, 343, 318, 265, 293, 342, 319, 264
 95, 291, 344, 317, 266, 292, 343, 318, 265
 96, 290, 345, 316, 267, 291, 344, 317, 266
 97, 289, 346, 315, 268, 290, 345, 316, 267
 98, 288, 347, 314, 269, 289, 346, 315, 268
 99, 287, 348, 313, 270, 288, 347, 314, 269
100, 286, 349, 312, 271, 287, 348, 313, 270
101, 285, 350, 311, 272, 286, 349, 312, 271
102, 284, 351, 310, 273, 285, 350, 311, 272
103, 283, 352, 309, 274, 284, 351, 310, 273
104, 282, 353, 308, 275, 283, 352, 309, 274
105, 281, 354, 307, 276, 282, 353, 308, 275
106, 280, 355, 306, 277, 281, 354, 307, 276
107, 279, 356, 305, 278, 280, 355, 306, 277
108,  24,  21,  22,  23, 279, 356, 305, 278
109, 201, 174, 279, 356,  14,  15,  24,  21
110, 202, 173, 280, 355, 201, 174, 279, 356
111, 203, 172, 281, 354, 202, 173, 280, 355
112, 204, 171, 282, 353, 203, 172, 281, 354
113, 205, 170, 283, 352, 204, 171, 282, 353
114, 206, 169, 284, 351, 205, 170, 283, 352
115, 207, 168, 285, 350, 206, 169, 284, 351
116, 208, 167, 286, 349, 207, 168, 285, 350
117, 209, 166, 287, 348, 208, 167, 286, 349
118, 210, 165, 288, 347, 209, 166, 287, 348
119, 211, 164, 289, 346, 210, 165, 288, 347
120, 212, 163, 290, 345, 211, 164, 289, 346
121, 213, 162, 291, 344, 212, 163, 290, 345
122, 214, 161, 292, 343, 213, 162, 291, 344
123, 215, 160, 293, 342, 214, 161, 292, 343
124, 216, 159, 294, 341, 215, 160, 293, 342
125, 217, 158, 295, 340, 216, 159, 294, 341
126, 218, 157, 296, 339, 217, 158, 295, 340
127, 219, 156, 297, 338, 218, 157, 296, 339
128, 220, 155, 298, 337, 219, 156, 297, 338
129, 221, 154, 299, 336, 220, 155, 298, 337
130, 222, 153, 300, 335, 221, 154, 299, 336
131, 223, 152, 301, 334, 222, 153, 300, 335
132, 224, 151, 302, 333, 223, 152, 301, 334
133, 225, 150, 303, 332, 224, 151, 302, 333
134, 226, 149, 304, 331, 225, 150, 303, 332
135,  11,  12,  17,  18, 226, 149, 304, 331
136, 408, 435, 434, 357,  25,  26,  27,  28
137, 407, 436, 433, 358, 408, 435, 434, 357
138, 406, 437, 432, 359, 407, 436, 433, 358
139, 405, 438, 431, 360, 406, 437, 432, 359
140, 404, 439, 430, 361, 405, 438, 431, 360
141, 403, 440, 429, 362, 404, 439, 430, 361
142, 402, 441, 428, 363, 403, 440, 429, 362
143, 401, 442, 427, 364, 402, 441, 428, 363
144, 400, 443, 426, 365, 401, 442, 427, 364
145, 399, 444, 425, 366, 400, 443, 426, 365
146, 398, 445, 424, 367, 399, 444, 425, 366
147, 397, 446, 423, 368, 398, 445, 424, 367
148, 396, 447, 422, 369, 397, 446, 423, 368
149, 395, 448, 421, 370, 396, 447, 422, 369
150, 394, 449, 420, 371, 395, 448, 421, 370
151, 393, 450, 419, 372, 394, 449, 420, 371
152, 392, 451, 418, 373, 393, 450, 419, 372
153, 391, 452, 417, 374, 392, 451, 418, 373
154, 390, 453, 416, 375, 391, 452, 417, 374
155, 389, 454, 415, 376, 390, 453, 416, 375
156, 388, 455, 414, 377, 389, 454, 415, 376
157, 387, 456, 413, 378, 388, 455, 414, 377
158, 386, 457, 412, 379, 387, 456, 413, 378
159, 385, 458, 411, 380, 386, 457, 412, 379
160, 384, 459, 410, 381, 385, 458, 411, 380
161, 383, 460, 409, 382, 384, 459, 410, 381
162,  32,  29,  30,  31, 383, 460, 409, 382
163, 305, 278, 383, 460,  22,  23,  32,  29
164, 306, 277, 384, 459, 305, 278, 383, 460
165, 307, 276, 385, 458, 306, 277, 384, 459
166, 308, 275, 386, 457, 307, 276, 385, 458
167, 309, 274, 387, 456, 308, 275, 386, 457
168, 310, 273, 388, 455, 309, 274, 387, 456
169, 311, 272, 389, 454, 310, 273, 388, 455
170, 312, 271, 390, 453, 311, 272, 389, 454
171, 313, 270, 391, 452, 312, 271, 390, 453
172, 314, 269, 392, 451, 313, 270, 391, 452
173, 315, 268, 393, 450, 314, 269, 392, 451
174, 316, 267, 394, 449, 315, 268, 393, 450
175, 317, 266, 395, 448, 316, 267, 394, 449
176, 318, 265, 396, 447, 317, 266, 395, 448
177, 319, 264, 397, 446, 318, 265, 396, 447
178, 320, 263, 398, 445, 319, 264, 397, 446
179, 321, 262, 399, 444, 320, 263, 398, 445
180, 322, 261, 400, 443, 321, 262, 399, 444
181, 323, 260, 401, 442, 322, 261, 400, 443
182, 324, 259, 402, 441, 323, 260, 401, 442
183, 325, 258, 403, 440, 324, 259, 402, 441
184, 326, 257, 404, 439, 325, 258, 403, 440
185, 327, 256, 405, 438, 326, 257, 404, 439
186, 328, 255, 406, 437, 327, 256, 405, 438
187, 329, 254, 407, 436, 328, 255, 406, 437
188, 330, 253, 408, 435, 329, 254, 407, 436
189,  19,  20,  25,  26, 330, 253, 408, 435
190, 512, 539, 538, 461,  33,  34,  35,  36
191, 511, 540, 537, 462, 512, 539, 538, 461
192, 510, 541, 536, 463, 511, 540, 537, 462
193, 509, 542, 535, 464, 510, 541, 536, 463
194, 508, 543, 534, 465, 509, 542, 535, 464
195, 507, 544, 533, 466, 508, 543, 534, 465
196, 506, 545, 532, 467, 507, 544, 533, 466
197, 505, 546, 531, 468, 506, 545, 532, 467
198, 504, 547, 530, 469, 505, 546, 531, 468
199, 503, 548, 529, 470, 504, 547, 530, 469
200, 502, 549, 528, 471, 503, 548, 529, 470
201, 501, 550, 527, 472, 502, 549, 528, 471
202, 500, 551, 526, 473, 501, 550, 527, 472
203, 499, 552, 525, 474, 500, 551, 526, 473
204, 498, 553, 524, 475, 499, 552, 525, 474
205, 497, 554, 523, 476, 498, 553, 524, 475
206, 496, 555, 522, 477, 497, 554, 523, 476
207, 495, 556, 521, 478, 496, 555, 522, 477
208, 494, 557, 520, 479, 495, 556, 521, 478
209, 493, 558, 519, 480, 494, 557, 520, 479
210, 492, 559, 518, 481, 493, 558, 519, 480
211, 491, 560, 517, 482, 492, 559, 518, 481
212, 490, 561, 516, 483, 491, 560, 517, 482
213, 489, 562, 515, 484, 490, 561, 516, 483
214, 488, 563, 514, 485, 489, 562, 515, 484
215, 487, 564, 513, 486, 488, 563, 514, 485
216,  40,  37,  38,  39, 487, 564, 513, 486
217, 409, 382, 487, 564,  30,  31,  40,  37
218, 410, 381, 488, 563, 409, 382, 487, 564
219, 411, 380, 489, 562, 410, 381, 488, 563
220, 412, 379, 490, 561, 411, 380, 489, 562
221, 413, 378, 491, 560, 412, 379, 490, 561
222, 414, 377, 492, 559, 413, 378, 491, 560
223, 415, 376, 493, 558, 414, 377, 492, 559
224, 416, 375, 494, 557, 415, 376, 493, 558
225, 417, 374, 495, 556, 416, 375, 494, 557
226, 418, 373, 496, 555, 417, 374, 495, 556
227, 419, 372, 497, 554, 418, 373, 496, 555
228, 420, 371, 498, 553, 419, 372, 497, 554
229, 421, 370, 499, 552, 420, 371, 498, 553
230, 422, 369, 500, 551, 421, 370, 499, 552
231, 423, 368, 501, 550, 422, 369, 500, 551
232, 424, 367, 502, 549, 423, 368, 501, 550
233, 425, 366, 503, 548, 424, 367, 502, 549
234, 426, 365, 504, 547, 425, 366, 503, 548
235, 427, 364, 505, 546, 426, 365, 504, 547
236, 428, 363, 506, 545, 427, 364, 505, 546
237, 429, 362, 507, 544, 428, 363, 506, 545
238, 430, 361, 508, 543, 429, 362, 507, 544
239, 431, 360, 509, 542, 430, 361, 508, 543
240, 432, 359, 510, 541, 431, 360, 509, 542
241, 433, 358, 511, 540, 432, 359, 510, 541
242, 434, 357, 512, 539, 433, 358, 511, 540
243,  27,  28,  33,  34, 434, 357, 512, 539
244, 513, 486, 616, 565,  38,  39,  41,  42
245, 514, 485, 615, 566, 513, 486, 616, 565
246, 515, 484, 614, 567, 514, 485, 615, 566
247, 516, 483, 613, 568, 515, 484, 614, 567
248, 517, 482, 612, 569, 516, 483, 613, 568
249, 518, 481, 611, 570, 517, 482, 612, 569
250, 519, 480, 610, 571, 518, 481, 611, 570
251, 520, 479, 609, 572, 519, 480, 610, 571
252, 521, 478, 608, 573, 520, 479, 609, 572
253, 522, 477, 607, 574, 521, 478, 608, 573
254, 523, 476, 606, 575, 522, 477, 607, 574
255, 524, 475, 605, 576, 523, 476, 606, 575
256, 525, 474, 604, 577, 524, 475, 605, 576
257, 526, 473, 603, 578, 525, 474, 604, 577
258, 527, 472, 602, 579, 526, 473, 603, 578
259, 528, 471, 601, 580, 527, 472, 602, 579
260, 529, 470, 600, 581, 528, 471, 601, 580
261, 530, 469, 599, 582, 529, 470, 600, 581
262, 531, 468, 598, 583, 530, 469, 599, 582
263, 532, 467, 597, 584, 531, 468, 598, 583
264, 533, 466, 596, 585, 532, 467, 597, 584
265, 534, 465, 595, 586, 533, 466, 596, 585
266, 535, 464, 594, 587, 534, 465, 595, 586
267, 536, 463, 593, 588, 535, 464, 594, 587
268, 537, 462, 592, 589, 536, 463, 593, 588
269, 538, 461, 591, 590, 537, 462, 592, 589
270,  35,  36,  43,  44, 538, 461, 591, 590
*Nset, nset=ALL_COLLECTOR, generate
   1,  616,    1
*Elset, elset=ALL_COLLECTOR, generate
   1,  270,    1
*Nset, nset=SET_SYM_X0
  5,  6,  7,  8, 13, 14, 15, 16, 21, 22, 23, 24, 29, 30, 31, 32
 37, 38, 39, 40, 41, 42
*Elset, elset=SET_SYM_X0
  27,  54,  81, 108, 109, 162, 163, 216, 217, 244
*Nset, nset=SET_SYM_Y0
   1,   4,   7,   8,  10,  11,  13,  14,  18,  19,  21,  22,  26,  27,  29,  30
  34,  35,  37,  38,  42,  44,  45,  46,  47,  48,  49,  50,  51,  52,  53,  54
  55,  56,  57,  58,  59,  60,  61,  62,  63,  64,  65,  66,  67,  68,  69,  70
  71,  72,  73,  74,  75,  76,  77,  78,  79,  80,  81,  82,  83,  84,  85,  86
  87,  88,  89,  90,  91,  92,  93,  94,  95,  96, 201, 202, 203, 204, 205, 206
 207, 208, 209, 210, 211, 212, 213, 214, 215, 216, 217, 218, 219, 220, 221, 222
 223, 224, 225, 226, 227, 228, 229, 230, 231, 232, 233, 234, 235, 236, 237, 238
 239, 240, 241, 242, 243, 244, 245, 246, 247, 248, 249, 250, 251, 252, 305, 306
 307, 308, 309, 310, 311, 312, 313, 314, 315, 316, 317, 318, 319, 320, 321, 322
 323, 324, 325, 326, 327, 328, 329, 330, 331, 332, 333, 334, 335, 336, 337, 338
 339, 340, 341, 342, 343, 344, 345, 346, 347, 348, 349, 350, 351, 352, 353, 354
 355, 356, 409, 410, 411, 412, 413, 414, 415, 416, 417, 418, 419, 420, 421, 422
 423, 424, 425, 426, 427, 428, 429, 430, 431, 432, 433, 434, 435, 436, 437, 438
 439, 440, 441, 442, 443, 444, 445, 446, 447, 448, 449, 450, 451, 452, 453, 454
 455, 456, 457, 458, 459, 460, 513, 514, 515, 516, 517, 518, 519, 520, 521, 522
 523, 524, 525, 526, 527, 528, 529, 530, 531, 532, 533, 534, 535, 536, 537, 538
 539, 540, 541, 542, 543, 544, 545, 546, 547, 548, 549, 550, 551, 552, 553, 554
 555, 556, 557, 558, 559, 560, 561, 562, 563, 564, 565, 566, 567, 568, 569, 570
 571, 572, 573, 574, 575, 576, 577, 578, 579, 580, 581, 582, 583, 584, 585, 586
 587, 588, 589, 590
*Elset, elset=SET_SYM_Y0, generate
   1,  270,    1
*Nset, nset=SET_ELECTRODE_INLET
  41,  42,  43,  44, 565, 566, 567, 568, 569, 570, 571, 572, 573, 574, 575, 576
 577, 578, 579, 580, 581, 582, 583, 584, 585, 586, 587, 588, 589, 590, 591, 592
 593, 594, 595, 596, 597, 598, 599, 600, 601, 602, 603, 604, 605, 606, 607, 608
 609, 610, 611, 612, 613, 614, 615, 616
*Elset, elset=SET_ELECTRODE_INLET, generate
 244,  270,    1
*Nset, nset=SET_ELECTRODE_OUTLET
   3,   4,   6,   7,  45,  46,  47,  48,  49,  50,  51,  52,  53,  54,  55,  56
  57,  58,  59,  60,  61,  62,  63,  64,  65,  66,  67,  68,  69,  70,  97,  98
  99, 100, 101, 102, 103, 104, 105, 106, 107, 108, 109, 110, 111, 112, 113, 114
 115, 116, 117, 118, 119, 120, 121, 122
*Elset, elset=SET_ELECTRODE_OUTLET, generate
  1,  27,   1
** Section: SEC_COLLECTOR
*Solid Section, elset=ALL_COLLECTOR, material=COLLECTOR_AL
,
*End Part
**  
*Part, name=P_ROLL_ANALYTIC_RIGID
*End Part
**  
**
** ASSEMBLY
**
*Assembly, name=Assembly
**  
*Instance, name=COLLECTOR-1, part=P_COLLECTOR
          0.,           0.,         -40.
*End Instance
**  
*Instance, name=COATING-1, part=P_COATING
          0.,       0.0075,         -40.
*End Instance
**  
*Instance, name=ROLL-1, part=P_ROLL_ANALYTIC_RIGID
          0.,     450.0825,           0.
          0.,     450.0825,           0.,           0.,     450.0825,          -1.,          90.
*Node
      1,           0.,        337.5,           0.
*Nset, nset=ROLL-1-RefPt_, internal
1, 
*Nset, nset=RP_ROLL
 1,
*Surface, type=REVOLUTION, name=S_ROLL
START,         450.,           0.
 LINE,         450.,         675.
*Rigid Body, ref node=ROLL-1-RefPt_, analytical surface=S_ROLL
*End Instance
**  
*Nset, nset=RP_ROLL, instance=ROLL-1
 1,
*Nset, nset=SET_ELECTRODE_INLET, instance=COLLECTOR-1
  41,  42,  43,  44, 565, 566, 567, 568, 569, 570, 571, 572, 573, 574, 575, 576
 577, 578, 579, 580, 581, 582, 583, 584, 585, 586, 587, 588, 589, 590, 591, 592
 593, 594, 595, 596, 597, 598, 599, 600, 601, 602, 603, 604, 605, 606, 607, 608
 609, 610, 611, 612, 613, 614, 615, 616
*Nset, nset=SET_ELECTRODE_INLET, instance=COATING-1
   79,   80,   81,   82,   85,   86,   87,   88, 1064, 1065, 1066, 1067, 1068, 1069, 1070, 1071
 1072, 1073, 1074, 1075, 1076, 1077, 1078, 1079, 1080, 1081, 1082, 1083, 1084, 1085, 1086, 1087
 1088, 1089, 1090, 1091, 1092, 1093, 1094, 1095, 1096, 1097, 1098, 1099, 1100, 1101, 1102, 1103
 1104, 1105, 1106, 1107, 1108, 1109, 1110, 1111, 1112, 1113, 1139, 1140, 1141, 1142, 1143, 1144
 1145, 1146, 1147, 1148, 1149, 1150, 1151, 1152, 1153, 1154, 1155, 1156, 1157, 1158, 1159, 1160
 1161, 1162, 1163, 1164, 1165, 1166, 1167, 1168, 1169, 1170, 1171, 1172, 1173, 1174, 1175, 1176
 1177, 1178, 1179, 1180, 1181, 1182, 1183, 1184, 1185, 1186, 1187, 1188
*Elset, elset=SET_ELECTRODE_INLET, instance=COLLECTOR-1, generate
 244,  270,    1
*Elset, elset=SET_ELECTRODE_INLET, instance=COATING-1
 677, 678, 679, 680, 681, 682, 683, 684, 685, 686, 687, 688, 689, 690, 691, 692
 693, 694, 695, 696, 697, 698, 699, 700, 701, 702, 703, 704, 705, 706, 707, 708
 709, 710, 711, 712, 713, 714, 715, 716, 717, 718, 719, 720, 721, 722, 723, 724
 725, 726, 727, 728, 755, 756, 757, 758, 759, 760, 761, 762, 763, 764, 765, 766
 767, 768, 769, 770, 771, 772, 773, 774, 775, 776, 777, 778, 779, 780
*Nset, nset=SET_ELECTRODE_INLET_COATING, instance=COATING-1
   79,   80,   81,   82,   85,   86,   87,   88, 1064, 1065, 1066, 1067, 1068, 1069, 1070, 1071
 1072, 1073, 1074, 1075, 1076, 1077, 1078, 1079, 1080, 1081, 1082, 1083, 1084, 1085, 1086, 1087
 1088, 1089, 1090, 1091, 1092, 1093, 1094, 1095, 1096, 1097, 1098, 1099, 1100, 1101, 1102, 1103
 1104, 1105, 1106, 1107, 1108, 1109, 1110, 1111, 1112, 1113, 1139, 1140, 1141, 1142, 1143, 1144
 1145, 1146, 1147, 1148, 1149, 1150, 1151, 1152, 1153, 1154, 1155, 1156, 1157, 1158, 1159, 1160
 1161, 1162, 1163, 1164, 1165, 1166, 1167, 1168, 1169, 1170, 1171, 1172, 1173, 1174, 1175, 1176
 1177, 1178, 1179, 1180, 1181, 1182, 1183, 1184, 1185, 1186, 1187, 1188
*Elset, elset=SET_ELECTRODE_INLET_COATING, instance=COATING-1
 677, 678, 679, 680, 681, 682, 683, 684, 685, 686, 687, 688, 689, 690, 691, 692
 693, 694, 695, 696, 697, 698, 699, 700, 701, 702, 703, 704, 705, 706, 707, 708
 709, 710, 711, 712, 713, 714, 715, 716, 717, 718, 719, 720, 721, 722, 723, 724
 725, 726, 727, 728, 755, 756, 757, 758, 759, 760, 761, 762, 763, 764, 765, 766
 767, 768, 769, 770, 771, 772, 773, 774, 775, 776, 777, 778, 779, 780
*Nset, nset=SET_ELECTRODE_INLET_COLLECTOR, instance=COLLECTOR-1
  41,  42,  43,  44, 565, 566, 567, 568, 569, 570, 571, 572, 573, 574, 575, 576
 577, 578, 579, 580, 581, 582, 583, 584, 585, 586, 587, 588, 589, 590, 591, 592
 593, 594, 595, 596, 597, 598, 599, 600, 601, 602, 603, 604, 605, 606, 607, 608
 609, 610, 611, 612, 613, 614, 615, 616
*Elset, elset=SET_ELECTRODE_INLET_COLLECTOR, instance=COLLECTOR-1, generate
 244,  270,    1
*Nset, nset=SET_ELECTRODE_OUTLET, instance=COLLECTOR-1
   3,   4,   6,   7,  45,  46,  47,  48,  49,  50,  51,  52,  53,  54,  55,  56
  57,  58,  59,  60,  61,  62,  63,  64,  65,  66,  67,  68,  69,  70,  97,  98
  99, 100, 101, 102, 103, 104, 105, 106, 107, 108, 109, 110, 111, 112, 113, 114
 115, 116, 117, 118, 119, 120, 121, 122
*Nset, nset=SET_ELECTRODE_OUTLET, instance=COATING-1
  17,  18,  19,  20,  21,  22,  23,  24, 289, 290, 291, 292, 293, 294, 295, 296
 297, 298, 299, 300, 301, 302, 303, 304, 305, 306, 307, 308, 309, 310, 311, 312
 313, 314, 315, 316, 317, 318, 319, 320, 321, 322, 323, 324, 325, 326, 327, 328
 329, 330, 331, 332, 333, 334, 335, 336, 337, 338, 339, 340, 341, 342, 343, 344
 345, 346, 347, 348, 349, 350, 351, 352, 353, 354, 355, 356, 357, 358, 359, 360
 361, 362, 363, 364, 365, 366, 367, 368, 369, 370, 371, 372, 373, 374, 375, 376
 377, 378, 379, 380, 381, 382, 383, 384, 385, 386, 387, 388
*Elset, elset=SET_ELECTRODE_OUTLET, instance=COLLECTOR-1, generate
  1,  27,   1
*Elset, elset=SET_ELECTRODE_OUTLET, instance=COATING-1, generate
  53,  130,    1
*Nset, nset=SET_ELECTRODE_OUTLET_COATING, instance=COATING-1
  17,  18,  19,  20,  21,  22,  23,  24, 289, 290, 291, 292, 293, 294, 295, 296
 297, 298, 299, 300, 301, 302, 303, 304, 305, 306, 307, 308, 309, 310, 311, 312
 313, 314, 315, 316, 317, 318, 319, 320, 321, 322, 323, 324, 325, 326, 327, 328
 329, 330, 331, 332, 333, 334, 335, 336, 337, 338, 339, 340, 341, 342, 343, 344
 345, 346, 347, 348, 349, 350, 351, 352, 353, 354, 355, 356, 357, 358, 359, 360
 361, 362, 363, 364, 365, 366, 367, 368, 369, 370, 371, 372, 373, 374, 375, 376
 377, 378, 379, 380, 381, 382, 383, 384, 385, 386, 387, 388
*Elset, elset=SET_ELECTRODE_OUTLET_COATING, instance=COATING-1, generate
  53,  130,    1
*Nset, nset=SET_ELECTRODE_OUTLET_COLLECTOR, instance=COLLECTOR-1
   3,   4,   6,   7,  45,  46,  47,  48,  49,  50,  51,  52,  53,  54,  55,  56
  57,  58,  59,  60,  61,  62,  63,  64,  65,  66,  67,  68,  69,  70,  97,  98
  99, 100, 101, 102, 103, 104, 105, 106, 107, 108, 109, 110, 111, 112, 113, 114
 115, 116, 117, 118, 119, 120, 121, 122
*Elset, elset=SET_ELECTRODE_OUTLET_COLLECTOR, instance=COLLECTOR-1, generate
  1,  27,   1
*Nset, nset=SET_SYM_X0, instance=COLLECTOR-1
  5,  6,  7,  8, 13, 14, 15, 16, 21, 22, 23, 24, 29, 30, 31, 32
 37, 38, 39, 40, 41, 42
*Nset, nset=SET_SYM_X0, instance=COATING-1
  2,  3,  6,  7, 11, 12, 15, 16, 18, 19, 23, 24, 26, 27, 30, 31
 32, 35, 38, 40, 41, 44, 45, 46, 51, 52, 53, 56, 57, 60, 62, 64
 65, 67, 69, 70, 74, 75, 77, 79, 82, 84, 85, 87
*Elset, elset=SET_SYM_X0, instance=COLLECTOR-1
  27,  54,  81, 108, 109, 162, 163, 216, 217, 244
*Elset, elset=SET_SYM_X0, instance=COATING-1
  26,  52,  78, 104, 130, 156, 182, 208, 209, 235, 286, 287, 313, 339, 390, 416
 417, 443, 494, 495, 546, 547, 598, 624, 625, 676, 677, 703, 754, 755
*Nset, nset=SET_SYM_X0_COATING, instance=COATING-1
  2,  3,  6,  7, 11, 12, 15, 16, 18, 19, 23, 24, 26, 27, 30, 31
 32, 35, 38, 40, 41, 44, 45, 46, 51, 52, 53, 56, 57, 60, 62, 64
 65, 67, 69, 70, 74, 75, 77, 79, 82, 84, 85, 87
*Elset, elset=SET_SYM_X0_COATING, instance=COATING-1
  26,  52,  78, 104, 130, 156, 182, 208, 209, 235, 286, 287, 313, 339, 390, 416
 417, 443, 494, 495, 546, 547, 598, 624, 625, 676, 677, 703, 754, 755
*Nset, nset=SET_SYM_X0_COLLECTOR, instance=COLLECTOR-1
  5,  6,  7,  8, 13, 14, 15, 16, 21, 22, 23, 24, 29, 30, 31, 32
 37, 38, 39, 40, 41, 42
*Elset, elset=SET_SYM_X0_COLLECTOR, instance=COLLECTOR-1
  27,  54,  81, 108, 109, 162, 163, 216, 217, 244
*Nset, nset=SET_SYM_Y0, instance=COLLECTOR-1
   1,   4,   7,   8,  10,  11,  13,  14,  18,  19,  21,  22,  26,  27,  29,  30
  34,  35,  37,  38,  42,  44,  45,  46,  47,  48,  49,  50,  51,  52,  53,  54
  55,  56,  57,  58,  59,  60,  61,  62,  63,  64,  65,  66,  67,  68,  69,  70
  71,  72,  73,  74,  75,  76,  77,  78,  79,  80,  81,  82,  83,  84,  85,  86
  87,  88,  89,  90,  91,  92,  93,  94,  95,  96, 201, 202, 203, 204, 205, 206
 207, 208, 209, 210, 211, 212, 213, 214, 215, 216, 217, 218, 219, 220, 221, 222
 223, 224, 225, 226, 227, 228, 229, 230, 231, 232, 233, 234, 235, 236, 237, 238
 239, 240, 241, 242, 243, 244, 245, 246, 247, 248, 249, 250, 251, 252, 305, 306
 307, 308, 309, 310, 311, 312, 313, 314, 315, 316, 317, 318, 319, 320, 321, 322
 323, 324, 325, 326, 327, 328, 329, 330, 331, 332, 333, 334, 335, 336, 337, 338
 339, 340, 341, 342, 343, 344, 345, 346, 347, 348, 349, 350, 351, 352, 353, 354
 355, 356, 409, 410, 411, 412, 413, 414, 415, 416, 417, 418, 419, 420, 421, 422
 423, 424, 425, 426, 427, 428, 429, 430, 431, 432, 433, 434, 435, 436, 437, 438
 439, 440, 441, 442, 443, 444, 445, 446, 447, 448, 449, 450, 451, 452, 453, 454
 455, 456, 457, 458, 459, 460, 513, 514, 515, 516, 517, 518, 519, 520, 521, 522
 523, 524, 525, 526, 527, 528, 529, 530, 531, 532, 533, 534, 535, 536, 537, 538
 539, 540, 541, 542, 543, 544, 545, 546, 547, 548, 549, 550, 551, 552, 553, 554
 555, 556, 557, 558, 559, 560, 561, 562, 563, 564, 565, 566, 567, 568, 569, 570
 571, 572, 573, 574, 575, 576, 577, 578, 579, 580, 581, 582, 583, 584, 585, 586
 587, 588, 589, 590
*Elset, elset=SET_SYM_Y0, instance=COLLECTOR-1, generate
   1,  270,    1
*Elset, elset=_S_COATING_TOP_S4, internal, instance=COATING-1
  27,  28,  29,  30,  31,  32,  33,  34,  35,  36,  37,  38,  39,  40,  41,  42
  43,  44,  45,  46,  47,  48,  49,  50,  51,  52,  79,  80,  81,  82,  83,  84
  85,  86,  87,  88,  89,  90,  91,  92,  93,  94,  95,  96,  97,  98,  99, 100
 101, 102, 103, 104, 157, 158, 159, 160, 161, 162, 163, 164, 165, 166, 167, 168
 169, 170, 171, 172, 173, 174, 175, 176, 177, 178, 179, 180, 181, 182, 755, 756
 757, 758, 759, 760, 761, 762, 763, 764, 765, 766, 767, 768, 769, 770, 771, 772
 773, 774, 775, 776, 777, 778, 779, 780
*Elset, elset=_S_COATING_TOP_S5, internal, instance=COATING-1
 287, 288, 289, 290, 291, 292, 293, 294, 295, 296, 297, 298, 299, 300, 301, 302
 303, 304, 305, 306, 307, 308, 309, 310, 311, 312, 339, 340, 341, 342, 343, 344
 345, 346, 347, 348, 349, 350, 351, 352, 353, 354, 355, 356, 357, 358, 359, 360
 361, 362, 363, 364, 443, 444, 445, 446, 447, 448, 449, 450, 451, 452, 453, 454
 455, 456, 457, 458, 459, 460, 461, 462, 463, 464, 465, 466, 467, 468, 495, 496
 497, 498, 499, 500, 501, 502, 503, 504, 505, 506, 507, 508, 509, 510, 511, 512
 513, 514, 515, 516, 517, 518, 519, 520
*Elset, elset=_S_COATING_TOP_S6, internal, instance=COATING-1
 547, 548, 549, 550, 551, 552, 553, 554, 555, 556, 557, 558, 559, 560, 561, 562
 563, 564, 565, 566, 567, 568, 569, 570, 571, 572, 625, 626, 627, 628, 629, 630
 631, 632, 633, 634, 635, 636, 637, 638, 639, 640, 641, 642, 643, 644, 645, 646
 647, 648, 649, 650
*Surface, type=ELEMENT, name=S_COATING_TOP
_S_COATING_TOP_S4, S4
_S_COATING_TOP_S5, S5
_S_COATING_TOP_S6, S6
*End Assembly
** 
** MATERIALS
** 
*Material, name=COATING_DPC
*Cap Plasticity
65.,   4.,  0.8, 0.01
*Cap Hardening
 55.,    0.
 58.,  0.05
 62.,   0.1
 72.,  0.15
 95.,   0.2
140.,  0.23
220.,  0.26
370.,  0.29
740., 0.325
*Density
 2.55e-09,
*Elastic
6500., 0.01
*Material, name=COLLECTOR_AL
*Density
 2.7e-09,
*Elastic
72000., 0.33
*Material, name=ROLL_STEEL
*Density
 7.93e-09,
*Elastic
193000., 0.2
