*Heading
 2D DPC flat compression unload residual thickness check
** Job name: FlatUnload_2D_DPC_E50Nu015 Model name: FlatUnload_2D_DPC_E50Nu015
** Generated by: Abaqus/CAE 2025
*Preprint, echo=NO, model=NO, history=NO, contact=NO
**
** SECTION CONTROLS
*SECTION CONTROLS, NAME=FilmControls, HOURGLASS=ENHANCED, DISTORTION CONTROL=YES
** PARTS
**
*Part, name=ActiveLayer
*Node
      1,          -3.,           0.
      2,  -2.95000005,           0.
      3,   -2.9000001,           0.
      4,   -2.8499999,           0.
      5,  -2.79999995,           0.
      6,        -2.75,           0.
      7,  -2.70000005,           0.
      8,   -2.6500001,           0.
      9,   -2.5999999,           0.
     10,  -2.54999995,           0.
     11,         -2.5,           0.
     12,  -2.45000005,           0.
     13,   -2.4000001,           0.
     14,   -2.3499999,           0.
     15,  -2.29999995,           0.
     16,        -2.25,           0.
     17,  -2.20000005,           0.
     18,   -2.1500001,           0.
     19,   -2.0999999,           0.
     20,  -2.04999995,           0.
     21,          -2.,           0.
     22,  -1.95000005,           0.
     23,  -1.89999998,           0.
     24,  -1.85000002,           0.
     25,  -1.79999995,           0.
     26,        -1.75,           0.
     27,  -1.70000005,           0.
     28,  -1.64999998,           0.
     29,  -1.60000002,           0.
     30,  -1.54999995,           0.
     31,         -1.5,           0.
     32,  -1.45000005,           0.
     33,  -1.39999998,           0.
     34,  -1.35000002,           0.
     35,  -1.29999995,           0.
     36,        -1.25,           0.
     37,  -1.20000005,           0.
     38,  -1.14999998,           0.
     39,  -1.10000002,           0.
     40,  -1.04999995,           0.
     41,          -1.,           0.
     42, -0.949999988,           0.
     43, -0.899999976,           0.
     44, -0.850000024,           0.
     45, -0.800000012,           0.
     46,        -0.75,           0.
     47, -0.699999988,           0.
     48, -0.649999976,           0.
     49, -0.600000024,           0.
     50, -0.550000012,           0.
     51,         -0.5,           0.
     52, -0.449999988,           0.
     53, -0.400000006,           0.
     54, -0.349999994,           0.
     55, -0.300000012,           0.
     56,        -0.25,           0.
     57, -0.200000003,           0.
     58, -0.150000006,           0.
     59, -0.100000001,           0.
     60, -0.0500000007,           0.
     61,           0.,           0.
     62, 0.0500000007,           0.
     63,  0.100000001,           0.
     64,  0.150000006,           0.
     65,  0.200000003,           0.
     66,         0.25,           0.
     67,  0.300000012,           0.
     68,  0.349999994,           0.
     69,  0.400000006,           0.
     70,  0.449999988,           0.
     71,          0.5,           0.
     72,  0.550000012,           0.
     73,  0.600000024,           0.
     74,  0.649999976,           0.
     75,  0.699999988,           0.
     76,         0.75,           0.
     77,  0.800000012,           0.
     78,  0.850000024,           0.
     79,  0.899999976,           0.
     80,  0.949999988,           0.
     81,           1.,           0.
     82,   1.04999995,           0.
     83,   1.10000002,           0.
     84,   1.14999998,           0.
     85,   1.20000005,           0.
     86,         1.25,           0.
     87,   1.29999995,           0.
     88,   1.35000002,           0.
     89,   1.39999998,           0.
     90,   1.45000005,           0.
     91,          1.5,           0.
     92,   1.54999995,           0.
     93,   1.60000002,           0.
     94,   1.64999998,           0.
     95,   1.70000005,           0.
     96,         1.75,           0.
     97,   1.79999995,           0.
     98,   1.85000002,           0.
     99,   1.89999998,           0.
    100,   1.95000005,           0.
    101,           2.,           0.
    102,   2.04999995,           0.
    103,    2.0999999,           0.
    104,    2.1500001,           0.
    105,   2.20000005,           0.
    106,         2.25,           0.
    107,   2.29999995,           0.
    108,    2.3499999,           0.
    109,    2.4000001,           0.
    110,   2.45000005,           0.
    111,          2.5,           0.
    112,   2.54999995,           0.
    113,    2.5999999,           0.
    114,    2.6500001,           0.
    115,   2.70000005,           0.
    116,         2.75,           0.
    117,   2.79999995,           0.
    118,    2.8499999,           0.
    119,    2.9000001,           0.
    120,   2.95000005,           0.
    121,           3.,           0.
    122,          -3., 0.00625000009
    123,  -2.95000005, 0.00625000009
    124,   -2.9000001, 0.00625000009
    125,   -2.8499999, 0.00625000009
    126,  -2.79999995, 0.00625000009
    127,        -2.75, 0.00625000009
    128,  -2.70000005, 0.00625000009
    129,   -2.6500001, 0.00625000009
    130,   -2.5999999, 0.00625000009
    131,  -2.54999995, 0.00625000009
    132,         -2.5, 0.00625000009
    133,  -2.45000005, 0.00625000009
    134,   -2.4000001, 0.00625000009
    135,   -2.3499999, 0.00625000009
    136,  -2.29999995, 0.00625000009
    137,        -2.25, 0.00625000009
    138,  -2.20000005, 0.00625000009
    139,   -2.1500001, 0.00625000009
    140,   -2.0999999, 0.00625000009
    141,  -2.04999995, 0.00625000009
    142,          -2., 0.00625000009
    143,  -1.95000005, 0.00625000009
    144,  -1.89999998, 0.00625000009
    145,  -1.85000002, 0.00625000009
    146,  -1.79999995, 0.00625000009
    147,        -1.75, 0.00625000009
    148,  -1.70000005, 0.00625000009
    149,  -1.64999998, 0.00625000009
    150,  -1.60000002, 0.00625000009
    151,  -1.54999995, 0.00625000009
    152,         -1.5, 0.00625000009
    153,  -1.45000005, 0.00625000009
    154,  -1.39999998, 0.00625000009
    155,  -1.35000002, 0.00625000009
    156,  -1.29999995, 0.00625000009
    157,        -1.25, 0.00625000009
    158,  -1.20000005, 0.00625000009
    159,  -1.14999998, 0.00625000009
    160,  -1.10000002, 0.00625000009
    161,  -1.04999995, 0.00625000009
    162,          -1., 0.00625000009
    163, -0.949999988, 0.00625000009
    164, -0.899999976, 0.00625000009
    165, -0.850000024, 0.00625000009
    166, -0.800000012, 0.00625000009
    167,        -0.75, 0.00625000009
    168, -0.699999988, 0.00625000009
    169, -0.649999976, 0.00625000009
    170, -0.600000024, 0.00625000009
    171, -0.550000012, 0.00625000009
    172,         -0.5, 0.00625000009
    173, -0.449999988, 0.00625000009
    174, -0.400000006, 0.00625000009
    175, -0.349999994, 0.00625000009
    176, -0.300000012, 0.00625000009
    177,        -0.25, 0.00625000009
    178, -0.200000003, 0.00625000009
    179, -0.150000006, 0.00625000009
    180, -0.100000001, 0.00625000009
    181, -0.0500000007, 0.00625000009
    182,           0., 0.00625000009
    183, 0.0500000007, 0.00625000009
    184,  0.100000001, 0.00625000009
    185,  0.150000006, 0.00625000009
    186,  0.200000003, 0.00625000009
    187,         0.25, 0.00625000009
    188,  0.300000012, 0.00625000009
    189,  0.349999994, 0.00625000009
    190,  0.400000006, 0.00625000009
    191,  0.449999988, 0.00625000009
    192,          0.5, 0.00625000009
    193,  0.550000012, 0.00625000009
    194,  0.600000024, 0.00625000009
    195,  0.649999976, 0.00625000009
    196,  0.699999988, 0.00625000009
    197,         0.75, 0.00625000009
    198,  0.800000012, 0.00625000009
    199,  0.850000024, 0.00625000009
    200,  0.899999976, 0.00625000009
    201,  0.949999988, 0.00625000009
    202,           1., 0.00625000009
    203,   1.04999995, 0.00625000009
    204,   1.10000002, 0.00625000009
    205,   1.14999998, 0.00625000009
    206,   1.20000005, 0.00625000009
    207,         1.25, 0.00625000009
    208,   1.29999995, 0.00625000009
    209,   1.35000002, 0.00625000009
    210,   1.39999998, 0.00625000009
    211,   1.45000005, 0.00625000009
    212,          1.5, 0.00625000009
    213,   1.54999995, 0.00625000009
    214,   1.60000002, 0.00625000009
    215,   1.64999998, 0.00625000009
    216,   1.70000005, 0.00625000009
    217,         1.75, 0.00625000009
    218,   1.79999995, 0.00625000009
    219,   1.85000002, 0.00625000009
    220,   1.89999998, 0.00625000009
    221,   1.95000005, 0.00625000009
    222,           2., 0.00625000009
    223,   2.04999995, 0.00625000009
    224,    2.0999999, 0.00625000009
    225,    2.1500001, 0.00625000009
    226,   2.20000005, 0.00625000009
    227,         2.25, 0.00625000009
    228,   2.29999995, 0.00625000009
    229,    2.3499999, 0.00625000009
    230,    2.4000001, 0.00625000009
    231,   2.45000005, 0.00625000009
    232,          2.5, 0.00625000009
    233,   2.54999995, 0.00625000009
    234,    2.5999999, 0.00625000009
    235,    2.6500001, 0.00625000009
    236,   2.70000005, 0.00625000009
    237,         2.75, 0.00625000009
    238,   2.79999995, 0.00625000009
    239,    2.8499999, 0.00625000009
    240,    2.9000001, 0.00625000009
    241,   2.95000005, 0.00625000009
    242,           3., 0.00625000009
    243,          -3., 0.0125000002
    244,  -2.95000005, 0.0125000002
    245,   -2.9000001, 0.0125000002
    246,   -2.8499999, 0.0125000002
    247,  -2.79999995, 0.0125000002
    248,        -2.75, 0.0125000002
    249,  -2.70000005, 0.0125000002
    250,   -2.6500001, 0.0125000002
    251,   -2.5999999, 0.0125000002
    252,  -2.54999995, 0.0125000002
    253,         -2.5, 0.0125000002
    254,  -2.45000005, 0.0125000002
    255,   -2.4000001, 0.0125000002
    256,   -2.3499999, 0.0125000002
    257,  -2.29999995, 0.0125000002
    258,        -2.25, 0.0125000002
    259,  -2.20000005, 0.0125000002
    260,   -2.1500001, 0.0125000002
    261,   -2.0999999, 0.0125000002
    262,  -2.04999995, 0.0125000002
    263,          -2., 0.0125000002
    264,  -1.95000005, 0.0125000002
    265,  -1.89999998, 0.0125000002
    266,  -1.85000002, 0.0125000002
    267,  -1.79999995, 0.0125000002
    268,        -1.75, 0.0125000002
    269,  -1.70000005, 0.0125000002
    270,  -1.64999998, 0.0125000002
    271,  -1.60000002, 0.0125000002
    272,  -1.54999995, 0.0125000002
    273,         -1.5, 0.0125000002
    274,  -1.45000005, 0.0125000002
    275,  -1.39999998, 0.0125000002
    276,  -1.35000002, 0.0125000002
    277,  -1.29999995, 0.0125000002
    278,        -1.25, 0.0125000002
    279,  -1.20000005, 0.0125000002
    280,  -1.14999998, 0.0125000002
    281,  -1.10000002, 0.0125000002
    282,  -1.04999995, 0.0125000002
    283,          -1., 0.0125000002
    284, -0.949999988, 0.0125000002
    285, -0.899999976, 0.0125000002
    286, -0.850000024, 0.0125000002
    287, -0.800000012, 0.0125000002
    288,        -0.75, 0.0125000002
    289, -0.699999988, 0.0125000002
    290, -0.649999976, 0.0125000002
    291, -0.600000024, 0.0125000002
    292, -0.550000012, 0.0125000002
    293,         -0.5, 0.0125000002
    294, -0.449999988, 0.0125000002
    295, -0.400000006, 0.0125000002
    296, -0.349999994, 0.0125000002
    297, -0.300000012, 0.0125000002
    298,        -0.25, 0.0125000002
    299, -0.200000003, 0.0125000002
    300, -0.150000006, 0.0125000002
    301, -0.100000001, 0.0125000002
    302, -0.0500000007, 0.0125000002
    303,           0., 0.0125000002
    304, 0.0500000007, 0.0125000002
    305,  0.100000001, 0.0125000002
    306,  0.150000006, 0.0125000002
    307,  0.200000003, 0.0125000002
    308,         0.25, 0.0125000002
    309,  0.300000012, 0.0125000002
    310,  0.349999994, 0.0125000002
    311,  0.400000006, 0.0125000002
    312,  0.449999988, 0.0125000002
    313,          0.5, 0.0125000002
    314,  0.550000012, 0.0125000002
    315,  0.600000024, 0.0125000002
    316,  0.649999976, 0.0125000002
    317,  0.699999988, 0.0125000002
    318,         0.75, 0.0125000002
    319,  0.800000012, 0.0125000002
    320,  0.850000024, 0.0125000002
    321,  0.899999976, 0.0125000002
    322,  0.949999988, 0.0125000002
    323,           1., 0.0125000002
    324,   1.04999995, 0.0125000002
    325,   1.10000002, 0.0125000002
    326,   1.14999998, 0.0125000002
    327,   1.20000005, 0.0125000002
    328,         1.25, 0.0125000002
    329,   1.29999995, 0.0125000002
    330,   1.35000002, 0.0125000002
    331,   1.39999998, 0.0125000002
    332,   1.45000005, 0.0125000002
    333,          1.5, 0.0125000002
    334,   1.54999995, 0.0125000002
    335,   1.60000002, 0.0125000002
    336,   1.64999998, 0.0125000002
    337,   1.70000005, 0.0125000002
    338,         1.75, 0.0125000002
    339,   1.79999995, 0.0125000002
    340,   1.85000002, 0.0125000002
    341,   1.89999998, 0.0125000002
    342,   1.95000005, 0.0125000002
    343,           2., 0.0125000002
    344,   2.04999995, 0.0125000002
    345,    2.0999999, 0.0125000002
    346,    2.1500001, 0.0125000002
    347,   2.20000005, 0.0125000002
    348,         2.25, 0.0125000002
    349,   2.29999995, 0.0125000002
    350,    2.3499999, 0.0125000002
    351,    2.4000001, 0.0125000002
    352,   2.45000005, 0.0125000002
    353,          2.5, 0.0125000002
    354,   2.54999995, 0.0125000002
    355,    2.5999999, 0.0125000002
    356,    2.6500001, 0.0125000002
    357,   2.70000005, 0.0125000002
    358,         2.75, 0.0125000002
    359,   2.79999995, 0.0125000002
    360,    2.8499999, 0.0125000002
    361,    2.9000001, 0.0125000002
    362,   2.95000005, 0.0125000002
    363,           3., 0.0125000002
    364,          -3., 0.0187500007
    365,  -2.95000005, 0.0187500007
    366,   -2.9000001, 0.0187500007
    367,   -2.8499999, 0.0187500007
    368,  -2.79999995, 0.0187500007
    369,        -2.75, 0.0187500007
    370,  -2.70000005, 0.0187500007
    371,   -2.6500001, 0.0187500007
    372,   -2.5999999, 0.0187500007
    373,  -2.54999995, 0.0187500007
    374,         -2.5, 0.0187500007
    375,  -2.45000005, 0.0187500007
    376,   -2.4000001, 0.0187500007
    377,   -2.3499999, 0.0187500007
    378,  -2.29999995, 0.0187500007
    379,        -2.25, 0.0187500007
    380,  -2.20000005, 0.0187500007
    381,   -2.1500001, 0.0187500007
    382,   -2.0999999, 0.0187500007
    383,  -2.04999995, 0.0187500007
    384,          -2., 0.0187500007
    385,  -1.95000005, 0.0187500007
    386,  -1.89999998, 0.0187500007
    387,  -1.85000002, 0.0187500007
    388,  -1.79999995, 0.0187500007
    389,        -1.75, 0.0187500007
    390,  -1.70000005, 0.0187500007
    391,  -1.64999998, 0.0187500007
    392,  -1.60000002, 0.0187500007
    393,  -1.54999995, 0.0187500007
    394,         -1.5, 0.0187500007
    395,  -1.45000005, 0.0187500007
    396,  -1.39999998, 0.0187500007
    397,  -1.35000002, 0.0187500007
    398,  -1.29999995, 0.0187500007
    399,        -1.25, 0.0187500007
    400,  -1.20000005, 0.0187500007
    401,  -1.14999998, 0.0187500007
    402,  -1.10000002, 0.0187500007
    403,  -1.04999995, 0.0187500007
    404,          -1., 0.0187500007
    405, -0.949999988, 0.0187500007
    406, -0.899999976, 0.0187500007
    407, -0.850000024, 0.0187500007
    408, -0.800000012, 0.0187500007
    409,        -0.75, 0.0187500007
    410, -0.699999988, 0.0187500007
    411, -0.649999976, 0.0187500007
    412, -0.600000024, 0.0187500007
    413, -0.550000012, 0.0187500007
    414,         -0.5, 0.0187500007
    415, -0.449999988, 0.0187500007
    416, -0.400000006, 0.0187500007
    417, -0.349999994, 0.0187500007
    418, -0.300000012, 0.0187500007
    419,        -0.25, 0.0187500007
    420, -0.200000003, 0.0187500007
    421, -0.150000006, 0.0187500007
    422, -0.100000001, 0.0187500007
    423, -0.0500000007, 0.0187500007
    424,           0., 0.0187500007
    425, 0.0500000007, 0.0187500007
    426,  0.100000001, 0.0187500007
    427,  0.150000006, 0.0187500007
    428,  0.200000003, 0.0187500007
    429,         0.25, 0.0187500007
    430,  0.300000012, 0.0187500007
    431,  0.349999994, 0.0187500007
    432,  0.400000006, 0.0187500007
    433,  0.449999988, 0.0187500007
    434,          0.5, 0.0187500007
    435,  0.550000012, 0.0187500007
    436,  0.600000024, 0.0187500007
    437,  0.649999976, 0.0187500007
    438,  0.699999988, 0.0187500007
    439,         0.75, 0.0187500007
    440,  0.800000012, 0.0187500007
    441,  0.850000024, 0.0187500007
    442,  0.899999976, 0.0187500007
    443,  0.949999988, 0.0187500007
    444,           1., 0.0187500007
    445,   1.04999995, 0.0187500007
    446,   1.10000002, 0.0187500007
    447,   1.14999998, 0.0187500007
    448,   1.20000005, 0.0187500007
    449,         1.25, 0.0187500007
    450,   1.29999995, 0.0187500007
    451,   1.35000002, 0.0187500007
    452,   1.39999998, 0.0187500007
    453,   1.45000005, 0.0187500007
    454,          1.5, 0.0187500007
    455,   1.54999995, 0.0187500007
    456,   1.60000002, 0.0187500007
    457,   1.64999998, 0.0187500007
    458,   1.70000005, 0.0187500007
    459,         1.75, 0.0187500007
    460,   1.79999995, 0.0187500007
    461,   1.85000002, 0.0187500007
    462,   1.89999998, 0.0187500007
    463,   1.95000005, 0.0187500007
    464,           2., 0.0187500007
    465,   2.04999995, 0.0187500007
    466,    2.0999999, 0.0187500007
    467,    2.1500001, 0.0187500007
    468,   2.20000005, 0.0187500007
    469,         2.25, 0.0187500007
    470,   2.29999995, 0.0187500007
    471,    2.3499999, 0.0187500007
    472,    2.4000001, 0.0187500007
    473,   2.45000005, 0.0187500007
    474,          2.5, 0.0187500007
    475,   2.54999995, 0.0187500007
    476,    2.5999999, 0.0187500007
    477,    2.6500001, 0.0187500007
    478,   2.70000005, 0.0187500007
    479,         2.75, 0.0187500007
    480,   2.79999995, 0.0187500007
    481,    2.8499999, 0.0187500007
    482,    2.9000001, 0.0187500007
    483,   2.95000005, 0.0187500007
    484,           3., 0.0187500007
    485,          -3., 0.0250000004
    486,  -2.95000005, 0.0250000004
    487,   -2.9000001, 0.0250000004
    488,   -2.8499999, 0.0250000004
    489,  -2.79999995, 0.0250000004
    490,        -2.75, 0.0250000004
    491,  -2.70000005, 0.0250000004
    492,   -2.6500001, 0.0250000004
    493,   -2.5999999, 0.0250000004
    494,  -2.54999995, 0.0250000004
    495,         -2.5, 0.0250000004
    496,  -2.45000005, 0.0250000004
    497,   -2.4000001, 0.0250000004
    498,   -2.3499999, 0.0250000004
    499,  -2.29999995, 0.0250000004
    500,        -2.25, 0.0250000004
    501,  -2.20000005, 0.0250000004
    502,   -2.1500001, 0.0250000004
    503,   -2.0999999, 0.0250000004
    504,  -2.04999995, 0.0250000004
    505,          -2., 0.0250000004
    506,  -1.95000005, 0.0250000004
    507,  -1.89999998, 0.0250000004
    508,  -1.85000002, 0.0250000004
    509,  -1.79999995, 0.0250000004
    510,        -1.75, 0.0250000004
    511,  -1.70000005, 0.0250000004
    512,  -1.64999998, 0.0250000004
    513,  -1.60000002, 0.0250000004
    514,  -1.54999995, 0.0250000004
    515,         -1.5, 0.0250000004
    516,  -1.45000005, 0.0250000004
    517,  -1.39999998, 0.0250000004
    518,  -1.35000002, 0.0250000004
    519,  -1.29999995, 0.0250000004
    520,        -1.25, 0.0250000004
    521,  -1.20000005, 0.0250000004
    522,  -1.14999998, 0.0250000004
    523,  -1.10000002, 0.0250000004
    524,  -1.04999995, 0.0250000004
    525,          -1., 0.0250000004
    526, -0.949999988, 0.0250000004
    527, -0.899999976, 0.0250000004
    528, -0.850000024, 0.0250000004
    529, -0.800000012, 0.0250000004
    530,        -0.75, 0.0250000004
    531, -0.699999988, 0.0250000004
    532, -0.649999976, 0.0250000004
    533, -0.600000024, 0.0250000004
    534, -0.550000012, 0.0250000004
    535,         -0.5, 0.0250000004
    536, -0.449999988, 0.0250000004
    537, -0.400000006, 0.0250000004
    538, -0.349999994, 0.0250000004
    539, -0.300000012, 0.0250000004
    540,        -0.25, 0.0250000004
    541, -0.200000003, 0.0250000004
    542, -0.150000006, 0.0250000004
    543, -0.100000001, 0.0250000004
    544, -0.0500000007, 0.0250000004
    545,           0., 0.0250000004
    546, 0.0500000007, 0.0250000004
    547,  0.100000001, 0.0250000004
    548,  0.150000006, 0.0250000004
    549,  0.200000003, 0.0250000004
    550,         0.25, 0.0250000004
    551,  0.300000012, 0.0250000004
    552,  0.349999994, 0.0250000004
    553,  0.400000006, 0.0250000004
    554,  0.449999988, 0.0250000004
    555,          0.5, 0.0250000004
    556,  0.550000012, 0.0250000004
    557,  0.600000024, 0.0250000004
    558,  0.649999976, 0.0250000004
    559,  0.699999988, 0.0250000004
    560,         0.75, 0.0250000004
    561,  0.800000012, 0.0250000004
    562,  0.850000024, 0.0250000004
    563,  0.899999976, 0.0250000004
    564,  0.949999988, 0.0250000004
    565,           1., 0.0250000004
    566,   1.04999995, 0.0250000004
    567,   1.10000002, 0.0250000004
    568,   1.14999998, 0.0250000004
    569,   1.20000005, 0.0250000004
    570,         1.25, 0.0250000004
    571,   1.29999995, 0.0250000004
    572,   1.35000002, 0.0250000004
    573,   1.39999998, 0.0250000004
    574,   1.45000005, 0.0250000004
    575,          1.5, 0.0250000004
    576,   1.54999995, 0.0250000004
    577,   1.60000002, 0.0250000004
    578,   1.64999998, 0.0250000004
    579,   1.70000005, 0.0250000004
    580,         1.75, 0.0250000004
    581,   1.79999995, 0.0250000004
    582,   1.85000002, 0.0250000004
    583,   1.89999998, 0.0250000004
    584,   1.95000005, 0.0250000004
    585,           2., 0.0250000004
    586,   2.04999995, 0.0250000004
    587,    2.0999999, 0.0250000004
    588,    2.1500001, 0.0250000004
    589,   2.20000005, 0.0250000004
    590,         2.25, 0.0250000004
    591,   2.29999995, 0.0250000004
    592,    2.3499999, 0.0250000004
    593,    2.4000001, 0.0250000004
    594,   2.45000005, 0.0250000004
    595,          2.5, 0.0250000004
    596,   2.54999995, 0.0250000004
    597,    2.5999999, 0.0250000004
    598,    2.6500001, 0.0250000004
    599,   2.70000005, 0.0250000004
    600,         2.75, 0.0250000004
    601,   2.79999995, 0.0250000004
    602,    2.8499999, 0.0250000004
    603,    2.9000001, 0.0250000004
    604,   2.95000005, 0.0250000004
    605,           3., 0.0250000004
    606,          -3.,      0.03125
    607,  -2.95000005,      0.03125
    608,   -2.9000001,      0.03125
    609,   -2.8499999,      0.03125
    610,  -2.79999995,      0.03125
    611,        -2.75,      0.03125
    612,  -2.70000005,      0.03125
    613,   -2.6500001,      0.03125
    614,   -2.5999999,      0.03125
    615,  -2.54999995,      0.03125
    616,         -2.5,      0.03125
    617,  -2.45000005,      0.03125
    618,   -2.4000001,      0.03125
    619,   -2.3499999,      0.03125
    620,  -2.29999995,      0.03125
    621,        -2.25,      0.03125
    622,  -2.20000005,      0.03125
    623,   -2.1500001,      0.03125
    624,   -2.0999999,      0.03125
    625,  -2.04999995,      0.03125
    626,          -2.,      0.03125
    627,  -1.95000005,      0.03125
    628,  -1.89999998,      0.03125
    629,  -1.85000002,      0.03125
    630,  -1.79999995,      0.03125
    631,        -1.75,      0.03125
    632,  -1.70000005,      0.03125
    633,  -1.64999998,      0.03125
    634,  -1.60000002,      0.03125
    635,  -1.54999995,      0.03125
    636,         -1.5,      0.03125
    637,  -1.45000005,      0.03125
    638,  -1.39999998,      0.03125
    639,  -1.35000002,      0.03125
    640,  -1.29999995,      0.03125
    641,        -1.25,      0.03125
    642,  -1.20000005,      0.03125
    643,  -1.14999998,      0.03125
    644,  -1.10000002,      0.03125
    645,  -1.04999995,      0.03125
    646,          -1.,      0.03125
    647, -0.949999988,      0.03125
    648, -0.899999976,      0.03125
    649, -0.850000024,      0.03125
    650, -0.800000012,      0.03125
    651,        -0.75,      0.03125
    652, -0.699999988,      0.03125
    653, -0.649999976,      0.03125
    654, -0.600000024,      0.03125
    655, -0.550000012,      0.03125
    656,         -0.5,      0.03125
    657, -0.449999988,      0.03125
    658, -0.400000006,      0.03125
    659, -0.349999994,      0.03125
    660, -0.300000012,      0.03125
    661,        -0.25,      0.03125
    662, -0.200000003,      0.03125
    663, -0.150000006,      0.03125
    664, -0.100000001,      0.03125
    665, -0.0500000007,      0.03125
    666,           0.,      0.03125
    667, 0.0500000007,      0.03125
    668,  0.100000001,      0.03125
    669,  0.150000006,      0.03125
    670,  0.200000003,      0.03125
    671,         0.25,      0.03125
    672,  0.300000012,      0.03125
    673,  0.349999994,      0.03125
    674,  0.400000006,      0.03125
    675,  0.449999988,      0.03125
    676,          0.5,      0.03125
    677,  0.550000012,      0.03125
    678,  0.600000024,      0.03125
    679,  0.649999976,      0.03125
    680,  0.699999988,      0.03125
    681,         0.75,      0.03125
    682,  0.800000012,      0.03125
    683,  0.850000024,      0.03125
    684,  0.899999976,      0.03125
    685,  0.949999988,      0.03125
    686,           1.,      0.03125
    687,   1.04999995,      0.03125
    688,   1.10000002,      0.03125
    689,   1.14999998,      0.03125
    690,   1.20000005,      0.03125
    691,         1.25,      0.03125
    692,   1.29999995,      0.03125
    693,   1.35000002,      0.03125
    694,   1.39999998,      0.03125
    695,   1.45000005,      0.03125
    696,          1.5,      0.03125
    697,   1.54999995,      0.03125
    698,   1.60000002,      0.03125
    699,   1.64999998,      0.03125
    700,   1.70000005,      0.03125
    701,         1.75,      0.03125
    702,   1.79999995,      0.03125
    703,   1.85000002,      0.03125
    704,   1.89999998,      0.03125
    705,   1.95000005,      0.03125
    706,           2.,      0.03125
    707,   2.04999995,      0.03125
    708,    2.0999999,      0.03125
    709,    2.1500001,      0.03125
    710,   2.20000005,      0.03125
    711,         2.25,      0.03125
    712,   2.29999995,      0.03125
    713,    2.3499999,      0.03125
    714,    2.4000001,      0.03125
    715,   2.45000005,      0.03125
    716,          2.5,      0.03125
    717,   2.54999995,      0.03125
    718,    2.5999999,      0.03125
    719,    2.6500001,      0.03125
    720,   2.70000005,      0.03125
    721,         2.75,      0.03125
    722,   2.79999995,      0.03125
    723,    2.8499999,      0.03125
    724,    2.9000001,      0.03125
    725,   2.95000005,      0.03125
    726,           3.,      0.03125
    727,          -3., 0.0375000015
    728,  -2.95000005, 0.0375000015
    729,   -2.9000001, 0.0375000015
    730,   -2.8499999, 0.0375000015
    731,  -2.79999995, 0.0375000015
    732,        -2.75, 0.0375000015
    733,  -2.70000005, 0.0375000015
    734,   -2.6500001, 0.0375000015
    735,   -2.5999999, 0.0375000015
    736,  -2.54999995, 0.0375000015
    737,         -2.5, 0.0375000015
    738,  -2.45000005, 0.0375000015
    739,   -2.4000001, 0.0375000015
    740,   -2.3499999, 0.0375000015
    741,  -2.29999995, 0.0375000015
    742,        -2.25, 0.0375000015
    743,  -2.20000005, 0.0375000015
    744,   -2.1500001, 0.0375000015
    745,   -2.0999999, 0.0375000015
    746,  -2.04999995, 0.0375000015
    747,          -2., 0.0375000015
    748,  -1.95000005, 0.0375000015
    749,  -1.89999998, 0.0375000015
    750,  -1.85000002, 0.0375000015
    751,  -1.79999995, 0.0375000015
    752,        -1.75, 0.0375000015
    753,  -1.70000005, 0.0375000015
    754,  -1.64999998, 0.0375000015
    755,  -1.60000002, 0.0375000015
    756,  -1.54999995, 0.0375000015
    757,         -1.5, 0.0375000015
    758,  -1.45000005, 0.0375000015
    759,  -1.39999998, 0.0375000015
    760,  -1.35000002, 0.0375000015
    761,  -1.29999995, 0.0375000015
    762,        -1.25, 0.0375000015
    763,  -1.20000005, 0.0375000015
    764,  -1.14999998, 0.0375000015
    765,  -1.10000002, 0.0375000015
    766,  -1.04999995, 0.0375000015
    767,          -1., 0.0375000015
    768, -0.949999988, 0.0375000015
    769, -0.899999976, 0.0375000015
    770, -0.850000024, 0.0375000015
    771, -0.800000012, 0.0375000015
    772,        -0.75, 0.0375000015
    773, -0.699999988, 0.0375000015
    774, -0.649999976, 0.0375000015
    775, -0.600000024, 0.0375000015
    776, -0.550000012, 0.0375000015
    777,         -0.5, 0.0375000015
    778, -0.449999988, 0.0375000015
    779, -0.400000006, 0.0375000015
    780, -0.349999994, 0.0375000015
    781, -0.300000012, 0.0375000015
    782,        -0.25, 0.0375000015
    783, -0.200000003, 0.0375000015
    784, -0.150000006, 0.0375000015
    785, -0.100000001, 0.0375000015
    786, -0.0500000007, 0.0375000015
    787,           0., 0.0375000015
    788, 0.0500000007, 0.0375000015
    789,  0.100000001, 0.0375000015
    790,  0.150000006, 0.0375000015
    791,  0.200000003, 0.0375000015
    792,         0.25, 0.0375000015
    793,  0.300000012, 0.0375000015
    794,  0.349999994, 0.0375000015
    795,  0.400000006, 0.0375000015
    796,  0.449999988, 0.0375000015
    797,          0.5, 0.0375000015
    798,  0.550000012, 0.0375000015
    799,  0.600000024, 0.0375000015
    800,  0.649999976, 0.0375000015
    801,  0.699999988, 0.0375000015
    802,         0.75, 0.0375000015
    803,  0.800000012, 0.0375000015
    804,  0.850000024, 0.0375000015
    805,  0.899999976, 0.0375000015
    806,  0.949999988, 0.0375000015
    807,           1., 0.0375000015
    808,   1.04999995, 0.0375000015
    809,   1.10000002, 0.0375000015
    810,   1.14999998, 0.0375000015
    811,   1.20000005, 0.0375000015
    812,         1.25, 0.0375000015
    813,   1.29999995, 0.0375000015
    814,   1.35000002, 0.0375000015
    815,   1.39999998, 0.0375000015
    816,   1.45000005, 0.0375000015
    817,          1.5, 0.0375000015
    818,   1.54999995, 0.0375000015
    819,   1.60000002, 0.0375000015
    820,   1.64999998, 0.0375000015
    821,   1.70000005, 0.0375000015
    822,         1.75, 0.0375000015
    823,   1.79999995, 0.0375000015
    824,   1.85000002, 0.0375000015
    825,   1.89999998, 0.0375000015
    826,   1.95000005, 0.0375000015
    827,           2., 0.0375000015
    828,   2.04999995, 0.0375000015
    829,    2.0999999, 0.0375000015
    830,    2.1500001, 0.0375000015
    831,   2.20000005, 0.0375000015
    832,         2.25, 0.0375000015
    833,   2.29999995, 0.0375000015
    834,    2.3499999, 0.0375000015
    835,    2.4000001, 0.0375000015
    836,   2.45000005, 0.0375000015
    837,          2.5, 0.0375000015
    838,   2.54999995, 0.0375000015
    839,    2.5999999, 0.0375000015
    840,    2.6500001, 0.0375000015
    841,   2.70000005, 0.0375000015
    842,         2.75, 0.0375000015
    843,   2.79999995, 0.0375000015
    844,    2.8499999, 0.0375000015
    845,    2.9000001, 0.0375000015
    846,   2.95000005, 0.0375000015
    847,           3., 0.0375000015
    848,          -3., 0.0437499993
    849,  -2.95000005, 0.0437499993
    850,   -2.9000001, 0.0437499993
    851,   -2.8499999, 0.0437499993
    852,  -2.79999995, 0.0437499993
    853,        -2.75, 0.0437499993
    854,  -2.70000005, 0.0437499993
    855,   -2.6500001, 0.0437499993
    856,   -2.5999999, 0.0437499993
    857,  -2.54999995, 0.0437499993
    858,         -2.5, 0.0437499993
    859,  -2.45000005, 0.0437499993
    860,   -2.4000001, 0.0437499993
    861,   -2.3499999, 0.0437499993
    862,  -2.29999995, 0.0437499993
    863,        -2.25, 0.0437499993
    864,  -2.20000005, 0.0437499993
    865,   -2.1500001, 0.0437499993
    866,   -2.0999999, 0.0437499993
    867,  -2.04999995, 0.0437499993
    868,          -2., 0.0437499993
    869,  -1.95000005, 0.0437499993
    870,  -1.89999998, 0.0437499993
    871,  -1.85000002, 0.0437499993
    872,  -1.79999995, 0.0437499993
    873,        -1.75, 0.0437499993
    874,  -1.70000005, 0.0437499993
    875,  -1.64999998, 0.0437499993
    876,  -1.60000002, 0.0437499993
    877,  -1.54999995, 0.0437499993
    878,         -1.5, 0.0437499993
    879,  -1.45000005, 0.0437499993
    880,  -1.39999998, 0.0437499993
    881,  -1.35000002, 0.0437499993
    882,  -1.29999995, 0.0437499993
    883,        -1.25, 0.0437499993
    884,  -1.20000005, 0.0437499993
    885,  -1.14999998, 0.0437499993
    886,  -1.10000002, 0.0437499993
    887,  -1.04999995, 0.0437499993
    888,          -1., 0.0437499993
    889, -0.949999988, 0.0437499993
    890, -0.899999976, 0.0437499993
    891, -0.850000024, 0.0437499993
    892, -0.800000012, 0.0437499993
    893,        -0.75, 0.0437499993
    894, -0.699999988, 0.0437499993
    895, -0.649999976, 0.0437499993
    896, -0.600000024, 0.0437499993
    897, -0.550000012, 0.0437499993
    898,         -0.5, 0.0437499993
    899, -0.449999988, 0.0437499993
    900, -0.400000006, 0.0437499993
    901, -0.349999994, 0.0437499993
    902, -0.300000012, 0.0437499993
    903,        -0.25, 0.0437499993
    904, -0.200000003, 0.0437499993
    905, -0.150000006, 0.0437499993
    906, -0.100000001, 0.0437499993
    907, -0.0500000007, 0.0437499993
    908,           0., 0.0437499993
    909, 0.0500000007, 0.0437499993
    910,  0.100000001, 0.0437499993
    911,  0.150000006, 0.0437499993
    912,  0.200000003, 0.0437499993
    913,         0.25, 0.0437499993
    914,  0.300000012, 0.0437499993
    915,  0.349999994, 0.0437499993
    916,  0.400000006, 0.0437499993
    917,  0.449999988, 0.0437499993
    918,          0.5, 0.0437499993
    919,  0.550000012, 0.0437499993
    920,  0.600000024, 0.0437499993
    921,  0.649999976, 0.0437499993
    922,  0.699999988, 0.0437499993
    923,         0.75, 0.0437499993
    924,  0.800000012, 0.0437499993
    925,  0.850000024, 0.0437499993
    926,  0.899999976, 0.0437499993
    927,  0.949999988, 0.0437499993
    928,           1., 0.0437499993
    929,   1.04999995, 0.0437499993
    930,   1.10000002, 0.0437499993
    931,   1.14999998, 0.0437499993
    932,   1.20000005, 0.0437499993
    933,         1.25, 0.0437499993
    934,   1.29999995, 0.0437499993
    935,   1.35000002, 0.0437499993
    936,   1.39999998, 0.0437499993
    937,   1.45000005, 0.0437499993
    938,          1.5, 0.0437499993
    939,   1.54999995, 0.0437499993
    940,   1.60000002, 0.0437499993
    941,   1.64999998, 0.0437499993
    942,   1.70000005, 0.0437499993
    943,         1.75, 0.0437499993
    944,   1.79999995, 0.0437499993
    945,   1.85000002, 0.0437499993
    946,   1.89999998, 0.0437499993
    947,   1.95000005, 0.0437499993
    948,           2., 0.0437499993
    949,   2.04999995, 0.0437499993
    950,    2.0999999, 0.0437499993
    951,    2.1500001, 0.0437499993
    952,   2.20000005, 0.0437499993
    953,         2.25, 0.0437499993
    954,   2.29999995, 0.0437499993
    955,    2.3499999, 0.0437499993
    956,    2.4000001, 0.0437499993
    957,   2.45000005, 0.0437499993
    958,          2.5, 0.0437499993
    959,   2.54999995, 0.0437499993
    960,    2.5999999, 0.0437499993
    961,    2.6500001, 0.0437499993
    962,   2.70000005, 0.0437499993
    963,         2.75, 0.0437499993
    964,   2.79999995, 0.0437499993
    965,    2.8499999, 0.0437499993
    966,    2.9000001, 0.0437499993
    967,   2.95000005, 0.0437499993
    968,           3., 0.0437499993
    969,          -3., 0.0500000007
    970,  -2.95000005, 0.0500000007
    971,   -2.9000001, 0.0500000007
    972,   -2.8499999, 0.0500000007
    973,  -2.79999995, 0.0500000007
    974,        -2.75, 0.0500000007
    975,  -2.70000005, 0.0500000007
    976,   -2.6500001, 0.0500000007
    977,   -2.5999999, 0.0500000007
    978,  -2.54999995, 0.0500000007
    979,         -2.5, 0.0500000007
    980,  -2.45000005, 0.0500000007
    981,   -2.4000001, 0.0500000007
    982,   -2.3499999, 0.0500000007
    983,  -2.29999995, 0.0500000007
    984,        -2.25, 0.0500000007
    985,  -2.20000005, 0.0500000007
    986,   -2.1500001, 0.0500000007
    987,   -2.0999999, 0.0500000007
    988,  -2.04999995, 0.0500000007
    989,          -2., 0.0500000007
    990,  -1.95000005, 0.0500000007
    991,  -1.89999998, 0.0500000007
    992,  -1.85000002, 0.0500000007
    993,  -1.79999995, 0.0500000007
    994,        -1.75, 0.0500000007
    995,  -1.70000005, 0.0500000007
    996,  -1.64999998, 0.0500000007
    997,  -1.60000002, 0.0500000007
    998,  -1.54999995, 0.0500000007
    999,         -1.5, 0.0500000007
   1000,  -1.45000005, 0.0500000007
   1001,  -1.39999998, 0.0500000007
   1002,  -1.35000002, 0.0500000007
   1003,  -1.29999995, 0.0500000007
   1004,        -1.25, 0.0500000007
   1005,  -1.20000005, 0.0500000007
   1006,  -1.14999998, 0.0500000007
   1007,  -1.10000002, 0.0500000007
   1008,  -1.04999995, 0.0500000007
   1009,          -1., 0.0500000007
   1010, -0.949999988, 0.0500000007
   1011, -0.899999976, 0.0500000007
   1012, -0.850000024, 0.0500000007
   1013, -0.800000012, 0.0500000007
   1014,        -0.75, 0.0500000007
   1015, -0.699999988, 0.0500000007
   1016, -0.649999976, 0.0500000007
   1017, -0.600000024, 0.0500000007
   1018, -0.550000012, 0.0500000007
   1019,         -0.5, 0.0500000007
   1020, -0.449999988, 0.0500000007
   1021, -0.400000006, 0.0500000007
   1022, -0.349999994, 0.0500000007
   1023, -0.300000012, 0.0500000007
   1024,        -0.25, 0.0500000007
   1025, -0.200000003, 0.0500000007
   1026, -0.150000006, 0.0500000007
   1027, -0.100000001, 0.0500000007
   1028, -0.0500000007, 0.0500000007
   1029,           0., 0.0500000007
   1030, 0.0500000007, 0.0500000007
   1031,  0.100000001, 0.0500000007
   1032,  0.150000006, 0.0500000007
   1033,  0.200000003, 0.0500000007
   1034,         0.25, 0.0500000007
   1035,  0.300000012, 0.0500000007
   1036,  0.349999994, 0.0500000007
   1037,  0.400000006, 0.0500000007
   1038,  0.449999988, 0.0500000007
   1039,          0.5, 0.0500000007
   1040,  0.550000012, 0.0500000007
   1041,  0.600000024, 0.0500000007
   1042,  0.649999976, 0.0500000007
   1043,  0.699999988, 0.0500000007
   1044,         0.75, 0.0500000007
   1045,  0.800000012, 0.0500000007
   1046,  0.850000024, 0.0500000007
   1047,  0.899999976, 0.0500000007
   1048,  0.949999988, 0.0500000007
   1049,           1., 0.0500000007
   1050,   1.04999995, 0.0500000007
   1051,   1.10000002, 0.0500000007
   1052,   1.14999998, 0.0500000007
   1053,   1.20000005, 0.0500000007
   1054,         1.25, 0.0500000007
   1055,   1.29999995, 0.0500000007
   1056,   1.35000002, 0.0500000007
   1057,   1.39999998, 0.0500000007
   1058,   1.45000005, 0.0500000007
   1059,          1.5, 0.0500000007
   1060,   1.54999995, 0.0500000007
   1061,   1.60000002, 0.0500000007
   1062,   1.64999998, 0.0500000007
   1063,   1.70000005, 0.0500000007
   1064,         1.75, 0.0500000007
   1065,   1.79999995, 0.0500000007
   1066,   1.85000002, 0.0500000007
   1067,   1.89999998, 0.0500000007
   1068,   1.95000005, 0.0500000007
   1069,           2., 0.0500000007
   1070,   2.04999995, 0.0500000007
   1071,    2.0999999, 0.0500000007
   1072,    2.1500001, 0.0500000007
   1073,   2.20000005, 0.0500000007
   1074,         2.25, 0.0500000007
   1075,   2.29999995, 0.0500000007
   1076,    2.3499999, 0.0500000007
   1077,    2.4000001, 0.0500000007
   1078,   2.45000005, 0.0500000007
   1079,          2.5, 0.0500000007
   1080,   2.54999995, 0.0500000007
   1081,    2.5999999, 0.0500000007
   1082,    2.6500001, 0.0500000007
   1083,   2.70000005, 0.0500000007
   1084,         2.75, 0.0500000007
   1085,   2.79999995, 0.0500000007
   1086,    2.8499999, 0.0500000007
   1087,    2.9000001, 0.0500000007
   1088,   2.95000005, 0.0500000007
   1089,           3., 0.0500000007
   1090,          -3., 0.0562499985
   1091,  -2.95000005, 0.0562499985
   1092,   -2.9000001, 0.0562499985
   1093,   -2.8499999, 0.0562499985
   1094,  -2.79999995, 0.0562499985
   1095,        -2.75, 0.0562499985
   1096,  -2.70000005, 0.0562499985
   1097,   -2.6500001, 0.0562499985
   1098,   -2.5999999, 0.0562499985
   1099,  -2.54999995, 0.0562499985
   1100,         -2.5, 0.0562499985
   1101,  -2.45000005, 0.0562499985
   1102,   -2.4000001, 0.0562499985
   1103,   -2.3499999, 0.0562499985
   1104,  -2.29999995, 0.0562499985
   1105,        -2.25, 0.0562499985
   1106,  -2.20000005, 0.0562499985
   1107,   -2.1500001, 0.0562499985
   1108,   -2.0999999, 0.0562499985
   1109,  -2.04999995, 0.0562499985
   1110,          -2., 0.0562499985
   1111,  -1.95000005, 0.0562499985
   1112,  -1.89999998, 0.0562499985
   1113,  -1.85000002, 0.0562499985
   1114,  -1.79999995, 0.0562499985
   1115,        -1.75, 0.0562499985
   1116,  -1.70000005, 0.0562499985
   1117,  -1.64999998, 0.0562499985
   1118,  -1.60000002, 0.0562499985
   1119,  -1.54999995, 0.0562499985
   1120,         -1.5, 0.0562499985
   1121,  -1.45000005, 0.0562499985
   1122,  -1.39999998, 0.0562499985
   1123,  -1.35000002, 0.0562499985
   1124,  -1.29999995, 0.0562499985
   1125,        -1.25, 0.0562499985
   1126,  -1.20000005, 0.0562499985
   1127,  -1.14999998, 0.0562499985
   1128,  -1.10000002, 0.0562499985
   1129,  -1.04999995, 0.0562499985
   1130,          -1., 0.0562499985
   1131, -0.949999988, 0.0562499985
   1132, -0.899999976, 0.0562499985
   1133, -0.850000024, 0.0562499985
   1134, -0.800000012, 0.0562499985
   1135,        -0.75, 0.0562499985
   1136, -0.699999988, 0.0562499985
   1137, -0.649999976, 0.0562499985
   1138, -0.600000024, 0.0562499985
   1139, -0.550000012, 0.0562499985
   1140,         -0.5, 0.0562499985
   1141, -0.449999988, 0.0562499985
   1142, -0.400000006, 0.0562499985
   1143, -0.349999994, 0.0562499985
   1144, -0.300000012, 0.0562499985
   1145,        -0.25, 0.0562499985
   1146, -0.200000003, 0.0562499985
   1147, -0.150000006, 0.0562499985
   1148, -0.100000001, 0.0562499985
   1149, -0.0500000007, 0.0562499985
   1150,           0., 0.0562499985
   1151, 0.0500000007, 0.0562499985
   1152,  0.100000001, 0.0562499985
   1153,  0.150000006, 0.0562499985
   1154,  0.200000003, 0.0562499985
   1155,         0.25, 0.0562499985
   1156,  0.300000012, 0.0562499985
   1157,  0.349999994, 0.0562499985
   1158,  0.400000006, 0.0562499985
   1159,  0.449999988, 0.0562499985
   1160,          0.5, 0.0562499985
   1161,  0.550000012, 0.0562499985
   1162,  0.600000024, 0.0562499985
   1163,  0.649999976, 0.0562499985
   1164,  0.699999988, 0.0562499985
   1165,         0.75, 0.0562499985
   1166,  0.800000012, 0.0562499985
   1167,  0.850000024, 0.0562499985
   1168,  0.899999976, 0.0562499985
   1169,  0.949999988, 0.0562499985
   1170,           1., 0.0562499985
   1171,   1.04999995, 0.0562499985
   1172,   1.10000002, 0.0562499985
   1173,   1.14999998, 0.0562499985
   1174,   1.20000005, 0.0562499985
   1175,         1.25, 0.0562499985
   1176,   1.29999995, 0.0562499985
   1177,   1.35000002, 0.0562499985
   1178,   1.39999998, 0.0562499985
   1179,   1.45000005, 0.0562499985
   1180,          1.5, 0.0562499985
   1181,   1.54999995, 0.0562499985
   1182,   1.60000002, 0.0562499985
   1183,   1.64999998, 0.0562499985
   1184,   1.70000005, 0.0562499985
   1185,         1.75, 0.0562499985
   1186,   1.79999995, 0.0562499985
   1187,   1.85000002, 0.0562499985
   1188,   1.89999998, 0.0562499985
   1189,   1.95000005, 0.0562499985
   1190,           2., 0.0562499985
   1191,   2.04999995, 0.0562499985
   1192,    2.0999999, 0.0562499985
   1193,    2.1500001, 0.0562499985
   1194,   2.20000005, 0.0562499985
   1195,         2.25, 0.0562499985
   1196,   2.29999995, 0.0562499985
   1197,    2.3499999, 0.0562499985
   1198,    2.4000001, 0.0562499985
   1199,   2.45000005, 0.0562499985
   1200,          2.5, 0.0562499985
   1201,   2.54999995, 0.0562499985
   1202,    2.5999999, 0.0562499985
   1203,    2.6500001, 0.0562499985
   1204,   2.70000005, 0.0562499985
   1205,         2.75, 0.0562499985
   1206,   2.79999995, 0.0562499985
   1207,    2.8499999, 0.0562499985
   1208,    2.9000001, 0.0562499985
   1209,   2.95000005, 0.0562499985
   1210,           3., 0.0562499985
   1211,          -3.,       0.0625
   1212,  -2.95000005,       0.0625
   1213,   -2.9000001,       0.0625
   1214,   -2.8499999,       0.0625
   1215,  -2.79999995,       0.0625
   1216,        -2.75,       0.0625
   1217,  -2.70000005,       0.0625
   1218,   -2.6500001,       0.0625
   1219,   -2.5999999,       0.0625
   1220,  -2.54999995,       0.0625
   1221,         -2.5,       0.0625
   1222,  -2.45000005,       0.0625
   1223,   -2.4000001,       0.0625
   1224,   -2.3499999,       0.0625
   1225,  -2.29999995,       0.0625
   1226,        -2.25,       0.0625
   1227,  -2.20000005,       0.0625
   1228,   -2.1500001,       0.0625
   1229,   -2.0999999,       0.0625
   1230,  -2.04999995,       0.0625
   1231,          -2.,       0.0625
   1232,  -1.95000005,       0.0625
   1233,  -1.89999998,       0.0625
   1234,  -1.85000002,       0.0625
   1235,  -1.79999995,       0.0625
   1236,        -1.75,       0.0625
   1237,  -1.70000005,       0.0625
   1238,  -1.64999998,       0.0625
   1239,  -1.60000002,       0.0625
   1240,  -1.54999995,       0.0625
   1241,         -1.5,       0.0625
   1242,  -1.45000005,       0.0625
   1243,  -1.39999998,       0.0625
   1244,  -1.35000002,       0.0625
   1245,  -1.29999995,       0.0625
   1246,        -1.25,       0.0625
   1247,  -1.20000005,       0.0625
   1248,  -1.14999998,       0.0625
   1249,  -1.10000002,       0.0625
   1250,  -1.04999995,       0.0625
   1251,          -1.,       0.0625
   1252, -0.949999988,       0.0625
   1253, -0.899999976,       0.0625
   1254, -0.850000024,       0.0625
   1255, -0.800000012,       0.0625
   1256,        -0.75,       0.0625
   1257, -0.699999988,       0.0625
   1258, -0.649999976,       0.0625
   1259, -0.600000024,       0.0625
   1260, -0.550000012,       0.0625
   1261,         -0.5,       0.0625
   1262, -0.449999988,       0.0625
   1263, -0.400000006,       0.0625
   1264, -0.349999994,       0.0625
   1265, -0.300000012,       0.0625
   1266,        -0.25,       0.0625
   1267, -0.200000003,       0.0625
   1268, -0.150000006,       0.0625
   1269, -0.100000001,       0.0625
   1270, -0.0500000007,       0.0625
   1271,           0.,       0.0625
   1272, 0.0500000007,       0.0625
   1273,  0.100000001,       0.0625
   1274,  0.150000006,       0.0625
   1275,  0.200000003,       0.0625
   1276,         0.25,       0.0625
   1277,  0.300000012,       0.0625
   1278,  0.349999994,       0.0625
   1279,  0.400000006,       0.0625
   1280,  0.449999988,       0.0625
   1281,          0.5,       0.0625
   1282,  0.550000012,       0.0625
   1283,  0.600000024,       0.0625
   1284,  0.649999976,       0.0625
   1285,  0.699999988,       0.0625
   1286,         0.75,       0.0625
   1287,  0.800000012,       0.0625
   1288,  0.850000024,       0.0625
   1289,  0.899999976,       0.0625
   1290,  0.949999988,       0.0625
   1291,           1.,       0.0625
   1292,   1.04999995,       0.0625
   1293,   1.10000002,       0.0625
   1294,   1.14999998,       0.0625
   1295,   1.20000005,       0.0625
   1296,         1.25,       0.0625
   1297,   1.29999995,       0.0625
   1298,   1.35000002,       0.0625
   1299,   1.39999998,       0.0625
   1300,   1.45000005,       0.0625
   1301,          1.5,       0.0625
   1302,   1.54999995,       0.0625
   1303,   1.60000002,       0.0625
   1304,   1.64999998,       0.0625
   1305,   1.70000005,       0.0625
   1306,         1.75,       0.0625
   1307,   1.79999995,       0.0625
   1308,   1.85000002,       0.0625
   1309,   1.89999998,       0.0625
   1310,   1.95000005,       0.0625
   1311,           2.,       0.0625
   1312,   2.04999995,       0.0625
   1313,    2.0999999,       0.0625
   1314,    2.1500001,       0.0625
   1315,   2.20000005,       0.0625
   1316,         2.25,       0.0625
   1317,   2.29999995,       0.0625
   1318,    2.3499999,       0.0625
   1319,    2.4000001,       0.0625
   1320,   2.45000005,       0.0625
   1321,          2.5,       0.0625
   1322,   2.54999995,       0.0625
   1323,    2.5999999,       0.0625
   1324,    2.6500001,       0.0625
   1325,   2.70000005,       0.0625
   1326,         2.75,       0.0625
   1327,   2.79999995,       0.0625
   1328,    2.8499999,       0.0625
   1329,    2.9000001,       0.0625
   1330,   2.95000005,       0.0625
   1331,           3.,       0.0625
   1332,          -3., 0.0687500015
   1333,  -2.95000005, 0.0687500015
   1334,   -2.9000001, 0.0687500015
   1335,   -2.8499999, 0.0687500015
   1336,  -2.79999995, 0.0687500015
   1337,        -2.75, 0.0687500015
   1338,  -2.70000005, 0.0687500015
   1339,   -2.6500001, 0.0687500015
   1340,   -2.5999999, 0.0687500015
   1341,  -2.54999995, 0.0687500015
   1342,         -2.5, 0.0687500015
   1343,  -2.45000005, 0.0687500015
   1344,   -2.4000001, 0.0687500015
   1345,   -2.3499999, 0.0687500015
   1346,  -2.29999995, 0.0687500015
   1347,        -2.25, 0.0687500015
   1348,  -2.20000005, 0.0687500015
   1349,   -2.1500001, 0.0687500015
   1350,   -2.0999999, 0.0687500015
   1351,  -2.04999995, 0.0687500015
   1352,          -2., 0.0687500015
   1353,  -1.95000005, 0.0687500015
   1354,  -1.89999998, 0.0687500015
   1355,  -1.85000002, 0.0687500015
   1356,  -1.79999995, 0.0687500015
   1357,        -1.75, 0.0687500015
   1358,  -1.70000005, 0.0687500015
   1359,  -1.64999998, 0.0687500015
   1360,  -1.60000002, 0.0687500015
   1361,  -1.54999995, 0.0687500015
   1362,         -1.5, 0.0687500015
   1363,  -1.45000005, 0.0687500015
   1364,  -1.39999998, 0.0687500015
   1365,  -1.35000002, 0.0687500015
   1366,  -1.29999995, 0.0687500015
   1367,        -1.25, 0.0687500015
   1368,  -1.20000005, 0.0687500015
   1369,  -1.14999998, 0.0687500015
   1370,  -1.10000002, 0.0687500015
   1371,  -1.04999995, 0.0687500015
   1372,          -1., 0.0687500015
   1373, -0.949999988, 0.0687500015
   1374, -0.899999976, 0.0687500015
   1375, -0.850000024, 0.0687500015
   1376, -0.800000012, 0.0687500015
   1377,        -0.75, 0.0687500015
   1378, -0.699999988, 0.0687500015
   1379, -0.649999976, 0.0687500015
   1380, -0.600000024, 0.0687500015
   1381, -0.550000012, 0.0687500015
   1382,         -0.5, 0.0687500015
   1383, -0.449999988, 0.0687500015
   1384, -0.400000006, 0.0687500015
   1385, -0.349999994, 0.0687500015
   1386, -0.300000012, 0.0687500015
   1387,        -0.25, 0.0687500015
   1388, -0.200000003, 0.0687500015
   1389, -0.150000006, 0.0687500015
   1390, -0.100000001, 0.0687500015
   1391, -0.0500000007, 0.0687500015
   1392,           0., 0.0687500015
   1393, 0.0500000007, 0.0687500015
   1394,  0.100000001, 0.0687500015
   1395,  0.150000006, 0.0687500015
   1396,  0.200000003, 0.0687500015
   1397,         0.25, 0.0687500015
   1398,  0.300000012, 0.0687500015
   1399,  0.349999994, 0.0687500015
   1400,  0.400000006, 0.0687500015
   1401,  0.449999988, 0.0687500015
   1402,          0.5, 0.0687500015
   1403,  0.550000012, 0.0687500015
   1404,  0.600000024, 0.0687500015
   1405,  0.649999976, 0.0687500015
   1406,  0.699999988, 0.0687500015
   1407,         0.75, 0.0687500015
   1408,  0.800000012, 0.0687500015
   1409,  0.850000024, 0.0687500015
   1410,  0.899999976, 0.0687500015
   1411,  0.949999988, 0.0687500015
   1412,           1., 0.0687500015
   1413,   1.04999995, 0.0687500015
   1414,   1.10000002, 0.0687500015
   1415,   1.14999998, 0.0687500015
   1416,   1.20000005, 0.0687500015
   1417,         1.25, 0.0687500015
   1418,   1.29999995, 0.0687500015
   1419,   1.35000002, 0.0687500015
   1420,   1.39999998, 0.0687500015
   1421,   1.45000005, 0.0687500015
   1422,          1.5, 0.0687500015
   1423,   1.54999995, 0.0687500015
   1424,   1.60000002, 0.0687500015
   1425,   1.64999998, 0.0687500015
   1426,   1.70000005, 0.0687500015
   1427,         1.75, 0.0687500015
   1428,   1.79999995, 0.0687500015
   1429,   1.85000002, 0.0687500015
   1430,   1.89999998, 0.0687500015
   1431,   1.95000005, 0.0687500015
   1432,           2., 0.0687500015
   1433,   2.04999995, 0.0687500015
   1434,    2.0999999, 0.0687500015
   1435,    2.1500001, 0.0687500015
   1436,   2.20000005, 0.0687500015
   1437,         2.25, 0.0687500015
   1438,   2.29999995, 0.0687500015
   1439,    2.3499999, 0.0687500015
   1440,    2.4000001, 0.0687500015
   1441,   2.45000005, 0.0687500015
   1442,          2.5, 0.0687500015
   1443,   2.54999995, 0.0687500015
   1444,    2.5999999, 0.0687500015
   1445,    2.6500001, 0.0687500015
   1446,   2.70000005, 0.0687500015
   1447,         2.75, 0.0687500015
   1448,   2.79999995, 0.0687500015
   1449,    2.8499999, 0.0687500015
   1450,    2.9000001, 0.0687500015
   1451,   2.95000005, 0.0687500015
   1452,           3., 0.0687500015
   1453,          -3.,  0.075000003
   1454,  -2.95000005,  0.075000003
   1455,   -2.9000001,  0.075000003
   1456,   -2.8499999,  0.075000003
   1457,  -2.79999995,  0.075000003
   1458,        -2.75,  0.075000003
   1459,  -2.70000005,  0.075000003
   1460,   -2.6500001,  0.075000003
   1461,   -2.5999999,  0.075000003
   1462,  -2.54999995,  0.075000003
   1463,         -2.5,  0.075000003
   1464,  -2.45000005,  0.075000003
   1465,   -2.4000001,  0.075000003
   1466,   -2.3499999,  0.075000003
   1467,  -2.29999995,  0.075000003
   1468,        -2.25,  0.075000003
   1469,  -2.20000005,  0.075000003
   1470,   -2.1500001,  0.075000003
   1471,   -2.0999999,  0.075000003
   1472,  -2.04999995,  0.075000003
   1473,          -2.,  0.075000003
   1474,  -1.95000005,  0.075000003
   1475,  -1.89999998,  0.075000003
   1476,  -1.85000002,  0.075000003
   1477,  -1.79999995,  0.075000003
   1478,        -1.75,  0.075000003
   1479,  -1.70000005,  0.075000003
   1480,  -1.64999998,  0.075000003
   1481,  -1.60000002,  0.075000003
   1482,  -1.54999995,  0.075000003
   1483,         -1.5,  0.075000003
   1484,  -1.45000005,  0.075000003
   1485,  -1.39999998,  0.075000003
   1486,  -1.35000002,  0.075000003
   1487,  -1.29999995,  0.075000003
   1488,        -1.25,  0.075000003
   1489,  -1.20000005,  0.075000003
   1490,  -1.14999998,  0.075000003
   1491,  -1.10000002,  0.075000003
   1492,  -1.04999995,  0.075000003
   1493,          -1.,  0.075000003
   1494, -0.949999988,  0.075000003
   1495, -0.899999976,  0.075000003
   1496, -0.850000024,  0.075000003
   1497, -0.800000012,  0.075000003
   1498,        -0.75,  0.075000003
   1499, -0.699999988,  0.075000003
   1500, -0.649999976,  0.075000003
   1501, -0.600000024,  0.075000003
   1502, -0.550000012,  0.075000003
   1503,         -0.5,  0.075000003
   1504, -0.449999988,  0.075000003
   1505, -0.400000006,  0.075000003
   1506, -0.349999994,  0.075000003
   1507, -0.300000012,  0.075000003
   1508,        -0.25,  0.075000003
   1509, -0.200000003,  0.075000003
   1510, -0.150000006,  0.075000003
   1511, -0.100000001,  0.075000003
   1512, -0.0500000007,  0.075000003
   1513,           0.,  0.075000003
   1514, 0.0500000007,  0.075000003
   1515,  0.100000001,  0.075000003
   1516,  0.150000006,  0.075000003
   1517,  0.200000003,  0.075000003
   1518,         0.25,  0.075000003
   1519,  0.300000012,  0.075000003
   1520,  0.349999994,  0.075000003
   1521,  0.400000006,  0.075000003
   1522,  0.449999988,  0.075000003
   1523,          0.5,  0.075000003
   1524,  0.550000012,  0.075000003
   1525,  0.600000024,  0.075000003
   1526,  0.649999976,  0.075000003
   1527,  0.699999988,  0.075000003
   1528,         0.75,  0.075000003
   1529,  0.800000012,  0.075000003
   1530,  0.850000024,  0.075000003
   1531,  0.899999976,  0.075000003
   1532,  0.949999988,  0.075000003
   1533,           1.,  0.075000003
   1534,   1.04999995,  0.075000003
   1535,   1.10000002,  0.075000003
   1536,   1.14999998,  0.075000003
   1537,   1.20000005,  0.075000003
   1538,         1.25,  0.075000003
   1539,   1.29999995,  0.075000003
   1540,   1.35000002,  0.075000003
   1541,   1.39999998,  0.075000003
   1542,   1.45000005,  0.075000003
   1543,          1.5,  0.075000003
   1544,   1.54999995,  0.075000003
   1545,   1.60000002,  0.075000003
   1546,   1.64999998,  0.075000003
   1547,   1.70000005,  0.075000003
   1548,         1.75,  0.075000003
   1549,   1.79999995,  0.075000003
   1550,   1.85000002,  0.075000003
   1551,   1.89999998,  0.075000003
   1552,   1.95000005,  0.075000003
   1553,           2.,  0.075000003
   1554,   2.04999995,  0.075000003
   1555,    2.0999999,  0.075000003
   1556,    2.1500001,  0.075000003
   1557,   2.20000005,  0.075000003
   1558,         2.25,  0.075000003
   1559,   2.29999995,  0.075000003
   1560,    2.3499999,  0.075000003
   1561,    2.4000001,  0.075000003
   1562,   2.45000005,  0.075000003
   1563,          2.5,  0.075000003
   1564,   2.54999995,  0.075000003
   1565,    2.5999999,  0.075000003
   1566,    2.6500001,  0.075000003
   1567,   2.70000005,  0.075000003
   1568,         2.75,  0.075000003
   1569,   2.79999995,  0.075000003
   1570,    2.8499999,  0.075000003
   1571,    2.9000001,  0.075000003
   1572,   2.95000005,  0.075000003
   1573,           3.,  0.075000003
   1574,          -3.,  0.081249997
   1575,  -2.95000005,  0.081249997
   1576,   -2.9000001,  0.081249997
   1577,   -2.8499999,  0.081249997
   1578,  -2.79999995,  0.081249997
   1579,        -2.75,  0.081249997
   1580,  -2.70000005,  0.081249997
   1581,   -2.6500001,  0.081249997
   1582,   -2.5999999,  0.081249997
   1583,  -2.54999995,  0.081249997
   1584,         -2.5,  0.081249997
   1585,  -2.45000005,  0.081249997
   1586,   -2.4000001,  0.081249997
   1587,   -2.3499999,  0.081249997
   1588,  -2.29999995,  0.081249997
   1589,        -2.25,  0.081249997
   1590,  -2.20000005,  0.081249997
   1591,   -2.1500001,  0.081249997
   1592,   -2.0999999,  0.081249997
   1593,  -2.04999995,  0.081249997
   1594,          -2.,  0.081249997
   1595,  -1.95000005,  0.081249997
   1596,  -1.89999998,  0.081249997
   1597,  -1.85000002,  0.081249997
   1598,  -1.79999995,  0.081249997
   1599,        -1.75,  0.081249997
   1600,  -1.70000005,  0.081249997
   1601,  -1.64999998,  0.081249997
   1602,  -1.60000002,  0.081249997
   1603,  -1.54999995,  0.081249997
   1604,         -1.5,  0.081249997
   1605,  -1.45000005,  0.081249997
   1606,  -1.39999998,  0.081249997
   1607,  -1.35000002,  0.081249997
   1608,  -1.29999995,  0.081249997
   1609,        -1.25,  0.081249997
   1610,  -1.20000005,  0.081249997
   1611,  -1.14999998,  0.081249997
   1612,  -1.10000002,  0.081249997
   1613,  -1.04999995,  0.081249997
   1614,          -1.,  0.081249997
   1615, -0.949999988,  0.081249997
   1616, -0.899999976,  0.081249997
   1617, -0.850000024,  0.081249997
   1618, -0.800000012,  0.081249997
   1619,        -0.75,  0.081249997
   1620, -0.699999988,  0.081249997
   1621, -0.649999976,  0.081249997
   1622, -0.600000024,  0.081249997
   1623, -0.550000012,  0.081249997
   1624,         -0.5,  0.081249997
   1625, -0.449999988,  0.081249997
   1626, -0.400000006,  0.081249997
   1627, -0.349999994,  0.081249997
   1628, -0.300000012,  0.081249997
   1629,        -0.25,  0.081249997
   1630, -0.200000003,  0.081249997
   1631, -0.150000006,  0.081249997
   1632, -0.100000001,  0.081249997
   1633, -0.0500000007,  0.081249997
   1634,           0.,  0.081249997
   1635, 0.0500000007,  0.081249997
   1636,  0.100000001,  0.081249997
   1637,  0.150000006,  0.081249997
   1638,  0.200000003,  0.081249997
   1639,         0.25,  0.081249997
   1640,  0.300000012,  0.081249997
   1641,  0.349999994,  0.081249997
   1642,  0.400000006,  0.081249997
   1643,  0.449999988,  0.081249997
   1644,          0.5,  0.081249997
   1645,  0.550000012,  0.081249997
   1646,  0.600000024,  0.081249997
   1647,  0.649999976,  0.081249997
   1648,  0.699999988,  0.081249997
   1649,         0.75,  0.081249997
   1650,  0.800000012,  0.081249997
   1651,  0.850000024,  0.081249997
   1652,  0.899999976,  0.081249997
   1653,  0.949999988,  0.081249997
   1654,           1.,  0.081249997
   1655,   1.04999995,  0.081249997
   1656,   1.10000002,  0.081249997
   1657,   1.14999998,  0.081249997
   1658,   1.20000005,  0.081249997
   1659,         1.25,  0.081249997
   1660,   1.29999995,  0.081249997
   1661,   1.35000002,  0.081249997
   1662,   1.39999998,  0.081249997
   1663,   1.45000005,  0.081249997
   1664,          1.5,  0.081249997
   1665,   1.54999995,  0.081249997
   1666,   1.60000002,  0.081249997
   1667,   1.64999998,  0.081249997
   1668,   1.70000005,  0.081249997
   1669,         1.75,  0.081249997
   1670,   1.79999995,  0.081249997
   1671,   1.85000002,  0.081249997
   1672,   1.89999998,  0.081249997
   1673,   1.95000005,  0.081249997
   1674,           2.,  0.081249997
   1675,   2.04999995,  0.081249997
   1676,    2.0999999,  0.081249997
   1677,    2.1500001,  0.081249997
   1678,   2.20000005,  0.081249997
   1679,         2.25,  0.081249997
   1680,   2.29999995,  0.081249997
   1681,    2.3499999,  0.081249997
   1682,    2.4000001,  0.081249997
   1683,   2.45000005,  0.081249997
   1684,          2.5,  0.081249997
   1685,   2.54999995,  0.081249997
   1686,    2.5999999,  0.081249997
   1687,    2.6500001,  0.081249997
   1688,   2.70000005,  0.081249997
   1689,         2.75,  0.081249997
   1690,   2.79999995,  0.081249997
   1691,    2.8499999,  0.081249997
   1692,    2.9000001,  0.081249997
   1693,   2.95000005,  0.081249997
   1694,           3.,  0.081249997
   1695,          -3., 0.0874999985
   1696,  -2.95000005, 0.0874999985
   1697,   -2.9000001, 0.0874999985
   1698,   -2.8499999, 0.0874999985
   1699,  -2.79999995, 0.0874999985
   1700,        -2.75, 0.0874999985
   1701,  -2.70000005, 0.0874999985
   1702,   -2.6500001, 0.0874999985
   1703,   -2.5999999, 0.0874999985
   1704,  -2.54999995, 0.0874999985
   1705,         -2.5, 0.0874999985
   1706,  -2.45000005, 0.0874999985
   1707,   -2.4000001, 0.0874999985
   1708,   -2.3499999, 0.0874999985
   1709,  -2.29999995, 0.0874999985
   1710,        -2.25, 0.0874999985
   1711,  -2.20000005, 0.0874999985
   1712,   -2.1500001, 0.0874999985
   1713,   -2.0999999, 0.0874999985
   1714,  -2.04999995, 0.0874999985
   1715,          -2., 0.0874999985
   1716,  -1.95000005, 0.0874999985
   1717,  -1.89999998, 0.0874999985
   1718,  -1.85000002, 0.0874999985
   1719,  -1.79999995, 0.0874999985
   1720,        -1.75, 0.0874999985
   1721,  -1.70000005, 0.0874999985
   1722,  -1.64999998, 0.0874999985
   1723,  -1.60000002, 0.0874999985
   1724,  -1.54999995, 0.0874999985
   1725,         -1.5, 0.0874999985
   1726,  -1.45000005, 0.0874999985
   1727,  -1.39999998, 0.0874999985
   1728,  -1.35000002, 0.0874999985
   1729,  -1.29999995, 0.0874999985
   1730,        -1.25, 0.0874999985
   1731,  -1.20000005, 0.0874999985
   1732,  -1.14999998, 0.0874999985
   1733,  -1.10000002, 0.0874999985
   1734,  -1.04999995, 0.0874999985
   1735,          -1., 0.0874999985
   1736, -0.949999988, 0.0874999985
   1737, -0.899999976, 0.0874999985
   1738, -0.850000024, 0.0874999985
   1739, -0.800000012, 0.0874999985
   1740,        -0.75, 0.0874999985
   1741, -0.699999988, 0.0874999985
   1742, -0.649999976, 0.0874999985
   1743, -0.600000024, 0.0874999985
   1744, -0.550000012, 0.0874999985
   1745,         -0.5, 0.0874999985
   1746, -0.449999988, 0.0874999985
   1747, -0.400000006, 0.0874999985
   1748, -0.349999994, 0.0874999985
   1749, -0.300000012, 0.0874999985
   1750,        -0.25, 0.0874999985
   1751, -0.200000003, 0.0874999985
   1752, -0.150000006, 0.0874999985
   1753, -0.100000001, 0.0874999985
   1754, -0.0500000007, 0.0874999985
   1755,           0., 0.0874999985
   1756, 0.0500000007, 0.0874999985
   1757,  0.100000001, 0.0874999985
   1758,  0.150000006, 0.0874999985
   1759,  0.200000003, 0.0874999985
   1760,         0.25, 0.0874999985
   1761,  0.300000012, 0.0874999985
   1762,  0.349999994, 0.0874999985
   1763,  0.400000006, 0.0874999985
   1764,  0.449999988, 0.0874999985
   1765,          0.5, 0.0874999985
   1766,  0.550000012, 0.0874999985
   1767,  0.600000024, 0.0874999985
   1768,  0.649999976, 0.0874999985
   1769,  0.699999988, 0.0874999985
   1770,         0.75, 0.0874999985
   1771,  0.800000012, 0.0874999985
   1772,  0.850000024, 0.0874999985
   1773,  0.899999976, 0.0874999985
   1774,  0.949999988, 0.0874999985
   1775,           1., 0.0874999985
   1776,   1.04999995, 0.0874999985
   1777,   1.10000002, 0.0874999985
   1778,   1.14999998, 0.0874999985
   1779,   1.20000005, 0.0874999985
   1780,         1.25, 0.0874999985
   1781,   1.29999995, 0.0874999985
   1782,   1.35000002, 0.0874999985
   1783,   1.39999998, 0.0874999985
   1784,   1.45000005, 0.0874999985
   1785,          1.5, 0.0874999985
   1786,   1.54999995, 0.0874999985
   1787,   1.60000002, 0.0874999985
   1788,   1.64999998, 0.0874999985
   1789,   1.70000005, 0.0874999985
   1790,         1.75, 0.0874999985
   1791,   1.79999995, 0.0874999985
   1792,   1.85000002, 0.0874999985
   1793,   1.89999998, 0.0874999985
   1794,   1.95000005, 0.0874999985
   1795,           2., 0.0874999985
   1796,   2.04999995, 0.0874999985
   1797,    2.0999999, 0.0874999985
   1798,    2.1500001, 0.0874999985
   1799,   2.20000005, 0.0874999985
   1800,         2.25, 0.0874999985
   1801,   2.29999995, 0.0874999985
   1802,    2.3499999, 0.0874999985
   1803,    2.4000001, 0.0874999985
   1804,   2.45000005, 0.0874999985
   1805,          2.5, 0.0874999985
   1806,   2.54999995, 0.0874999985
   1807,    2.5999999, 0.0874999985
   1808,    2.6500001, 0.0874999985
   1809,   2.70000005, 0.0874999985
   1810,         2.75, 0.0874999985
   1811,   2.79999995, 0.0874999985
   1812,    2.8499999, 0.0874999985
   1813,    2.9000001, 0.0874999985
   1814,   2.95000005, 0.0874999985
   1815,           3., 0.0874999985
   1816,          -3.,      0.09375
   1817,  -2.95000005,      0.09375
   1818,   -2.9000001,      0.09375
   1819,   -2.8499999,      0.09375
   1820,  -2.79999995,      0.09375
   1821,        -2.75,      0.09375
   1822,  -2.70000005,      0.09375
   1823,   -2.6500001,      0.09375
   1824,   -2.5999999,      0.09375
   1825,  -2.54999995,      0.09375
   1826,         -2.5,      0.09375
   1827,  -2.45000005,      0.09375
   1828,   -2.4000001,      0.09375
   1829,   -2.3499999,      0.09375
   1830,  -2.29999995,      0.09375
   1831,        -2.25,      0.09375
   1832,  -2.20000005,      0.09375
   1833,   -2.1500001,      0.09375
   1834,   -2.0999999,      0.09375
   1835,  -2.04999995,      0.09375
   1836,          -2.,      0.09375
   1837,  -1.95000005,      0.09375
   1838,  -1.89999998,      0.09375
   1839,  -1.85000002,      0.09375
   1840,  -1.79999995,      0.09375
   1841,        -1.75,      0.09375
   1842,  -1.70000005,      0.09375
   1843,  -1.64999998,      0.09375
   1844,  -1.60000002,      0.09375
   1845,  -1.54999995,      0.09375
   1846,         -1.5,      0.09375
   1847,  -1.45000005,      0.09375
   1848,  -1.39999998,      0.09375
   1849,  -1.35000002,      0.09375
   1850,  -1.29999995,      0.09375
   1851,        -1.25,      0.09375
   1852,  -1.20000005,      0.09375
   1853,  -1.14999998,      0.09375
   1854,  -1.10000002,      0.09375
   1855,  -1.04999995,      0.09375
   1856,          -1.,      0.09375
   1857, -0.949999988,      0.09375
   1858, -0.899999976,      0.09375
   1859, -0.850000024,      0.09375
   1860, -0.800000012,      0.09375
   1861,        -0.75,      0.09375
   1862, -0.699999988,      0.09375
   1863, -0.649999976,      0.09375
   1864, -0.600000024,      0.09375
   1865, -0.550000012,      0.09375
   1866,         -0.5,      0.09375
   1867, -0.449999988,      0.09375
   1868, -0.400000006,      0.09375
   1869, -0.349999994,      0.09375
   1870, -0.300000012,      0.09375
   1871,        -0.25,      0.09375
   1872, -0.200000003,      0.09375
   1873, -0.150000006,      0.09375
   1874, -0.100000001,      0.09375
   1875, -0.0500000007,      0.09375
   1876,           0.,      0.09375
   1877, 0.0500000007,      0.09375
   1878,  0.100000001,      0.09375
   1879,  0.150000006,      0.09375
   1880,  0.200000003,      0.09375
   1881,         0.25,      0.09375
   1882,  0.300000012,      0.09375
   1883,  0.349999994,      0.09375
   1884,  0.400000006,      0.09375
   1885,  0.449999988,      0.09375
   1886,          0.5,      0.09375
   1887,  0.550000012,      0.09375
   1888,  0.600000024,      0.09375
   1889,  0.649999976,      0.09375
   1890,  0.699999988,      0.09375
   1891,         0.75,      0.09375
   1892,  0.800000012,      0.09375
   1893,  0.850000024,      0.09375
   1894,  0.899999976,      0.09375
   1895,  0.949999988,      0.09375
   1896,           1.,      0.09375
   1897,   1.04999995,      0.09375
   1898,   1.10000002,      0.09375
   1899,   1.14999998,      0.09375
   1900,   1.20000005,      0.09375
   1901,         1.25,      0.09375
   1902,   1.29999995,      0.09375
   1903,   1.35000002,      0.09375
   1904,   1.39999998,      0.09375
   1905,   1.45000005,      0.09375
   1906,          1.5,      0.09375
   1907,   1.54999995,      0.09375
   1908,   1.60000002,      0.09375
   1909,   1.64999998,      0.09375
   1910,   1.70000005,      0.09375
   1911,         1.75,      0.09375
   1912,   1.79999995,      0.09375
   1913,   1.85000002,      0.09375
   1914,   1.89999998,      0.09375
   1915,   1.95000005,      0.09375
   1916,           2.,      0.09375
   1917,   2.04999995,      0.09375
   1918,    2.0999999,      0.09375
   1919,    2.1500001,      0.09375
   1920,   2.20000005,      0.09375
   1921,         2.25,      0.09375
   1922,   2.29999995,      0.09375
   1923,    2.3499999,      0.09375
   1924,    2.4000001,      0.09375
   1925,   2.45000005,      0.09375
   1926,          2.5,      0.09375
   1927,   2.54999995,      0.09375
   1928,    2.5999999,      0.09375
   1929,    2.6500001,      0.09375
   1930,   2.70000005,      0.09375
   1931,         2.75,      0.09375
   1932,   2.79999995,      0.09375
   1933,    2.8499999,      0.09375
   1934,    2.9000001,      0.09375
   1935,   2.95000005,      0.09375
   1936,           3.,      0.09375
   1937,          -3.,  0.100000001
   1938,  -2.95000005,  0.100000001
   1939,   -2.9000001,  0.100000001
   1940,   -2.8499999,  0.100000001
   1941,  -2.79999995,  0.100000001
   1942,        -2.75,  0.100000001
   1943,  -2.70000005,  0.100000001
   1944,   -2.6500001,  0.100000001
   1945,   -2.5999999,  0.100000001
   1946,  -2.54999995,  0.100000001
   1947,         -2.5,  0.100000001
   1948,  -2.45000005,  0.100000001
   1949,   -2.4000001,  0.100000001
   1950,   -2.3499999,  0.100000001
   1951,  -2.29999995,  0.100000001
   1952,        -2.25,  0.100000001
   1953,  -2.20000005,  0.100000001
   1954,   -2.1500001,  0.100000001
   1955,   -2.0999999,  0.100000001
   1956,  -2.04999995,  0.100000001
   1957,          -2.,  0.100000001
   1958,  -1.95000005,  0.100000001
   1959,  -1.89999998,  0.100000001
   1960,  -1.85000002,  0.100000001
   1961,  -1.79999995,  0.100000001
   1962,        -1.75,  0.100000001
   1963,  -1.70000005,  0.100000001
   1964,  -1.64999998,  0.100000001
   1965,  -1.60000002,  0.100000001
   1966,  -1.54999995,  0.100000001
   1967,         -1.5,  0.100000001
   1968,  -1.45000005,  0.100000001
   1969,  -1.39999998,  0.100000001
   1970,  -1.35000002,  0.100000001
   1971,  -1.29999995,  0.100000001
   1972,        -1.25,  0.100000001
   1973,  -1.20000005,  0.100000001
   1974,  -1.14999998,  0.100000001
   1975,  -1.10000002,  0.100000001
   1976,  -1.04999995,  0.100000001
   1977,          -1.,  0.100000001
   1978, -0.949999988,  0.100000001
   1979, -0.899999976,  0.100000001
   1980, -0.850000024,  0.100000001
   1981, -0.800000012,  0.100000001
   1982,        -0.75,  0.100000001
   1983, -0.699999988,  0.100000001
   1984, -0.649999976,  0.100000001
   1985, -0.600000024,  0.100000001
   1986, -0.550000012,  0.100000001
   1987,         -0.5,  0.100000001
   1988, -0.449999988,  0.100000001
   1989, -0.400000006,  0.100000001
   1990, -0.349999994,  0.100000001
   1991, -0.300000012,  0.100000001
   1992,        -0.25,  0.100000001
   1993, -0.200000003,  0.100000001
   1994, -0.150000006,  0.100000001
   1995, -0.100000001,  0.100000001
   1996, -0.0500000007,  0.100000001
   1997,           0.,  0.100000001
   1998, 0.0500000007,  0.100000001
   1999,  0.100000001,  0.100000001
   2000,  0.150000006,  0.100000001
   2001,  0.200000003,  0.100000001
   2002,         0.25,  0.100000001
   2003,  0.300000012,  0.100000001
   2004,  0.349999994,  0.100000001
   2005,  0.400000006,  0.100000001
   2006,  0.449999988,  0.100000001
   2007,          0.5,  0.100000001
   2008,  0.550000012,  0.100000001
   2009,  0.600000024,  0.100000001
   2010,  0.649999976,  0.100000001
   2011,  0.699999988,  0.100000001
   2012,         0.75,  0.100000001
   2013,  0.800000012,  0.100000001
   2014,  0.850000024,  0.100000001
   2015,  0.899999976,  0.100000001
   2016,  0.949999988,  0.100000001
   2017,           1.,  0.100000001
   2018,   1.04999995,  0.100000001
   2019,   1.10000002,  0.100000001
   2020,   1.14999998,  0.100000001
   2021,   1.20000005,  0.100000001
   2022,         1.25,  0.100000001
   2023,   1.29999995,  0.100000001
   2024,   1.35000002,  0.100000001
   2025,   1.39999998,  0.100000001
   2026,   1.45000005,  0.100000001
   2027,          1.5,  0.100000001
   2028,   1.54999995,  0.100000001
   2029,   1.60000002,  0.100000001
   2030,   1.64999998,  0.100000001
   2031,   1.70000005,  0.100000001
   2032,         1.75,  0.100000001
   2033,   1.79999995,  0.100000001
   2034,   1.85000002,  0.100000001
   2035,   1.89999998,  0.100000001
   2036,   1.95000005,  0.100000001
   2037,           2.,  0.100000001
   2038,   2.04999995,  0.100000001
   2039,    2.0999999,  0.100000001
   2040,    2.1500001,  0.100000001
   2041,   2.20000005,  0.100000001
   2042,         2.25,  0.100000001
   2043,   2.29999995,  0.100000001
   2044,    2.3499999,  0.100000001
   2045,    2.4000001,  0.100000001
   2046,   2.45000005,  0.100000001
   2047,          2.5,  0.100000001
   2048,   2.54999995,  0.100000001
   2049,    2.5999999,  0.100000001
   2050,    2.6500001,  0.100000001
   2051,   2.70000005,  0.100000001
   2052,         2.75,  0.100000001
   2053,   2.79999995,  0.100000001
   2054,    2.8499999,  0.100000001
   2055,    2.9000001,  0.100000001
   2056,   2.95000005,  0.100000001
   2057,           3.,  0.100000001
   2058,          -3.,  0.106250003
   2059,  -2.95000005,  0.106250003
   2060,   -2.9000001,  0.106250003
   2061,   -2.8499999,  0.106250003
   2062,  -2.79999995,  0.106250003
   2063,        -2.75,  0.106250003
   2064,  -2.70000005,  0.106250003
   2065,   -2.6500001,  0.106250003
   2066,   -2.5999999,  0.106250003
   2067,  -2.54999995,  0.106250003
   2068,         -2.5,  0.106250003
   2069,  -2.45000005,  0.106250003
   2070,   -2.4000001,  0.106250003
   2071,   -2.3499999,  0.106250003
   2072,  -2.29999995,  0.106250003
   2073,        -2.25,  0.106250003
   2074,  -2.20000005,  0.106250003
   2075,   -2.1500001,  0.106250003
   2076,   -2.0999999,  0.106250003
   2077,  -2.04999995,  0.106250003
   2078,          -2.,  0.106250003
   2079,  -1.95000005,  0.106250003
   2080,  -1.89999998,  0.106250003
   2081,  -1.85000002,  0.106250003
   2082,  -1.79999995,  0.106250003
   2083,        -1.75,  0.106250003
   2084,  -1.70000005,  0.106250003
   2085,  -1.64999998,  0.106250003
   2086,  -1.60000002,  0.106250003
   2087,  -1.54999995,  0.106250003
   2088,         -1.5,  0.106250003
   2089,  -1.45000005,  0.106250003
   2090,  -1.39999998,  0.106250003
   2091,  -1.35000002,  0.106250003
   2092,  -1.29999995,  0.106250003
   2093,        -1.25,  0.106250003
   2094,  -1.20000005,  0.106250003
   2095,  -1.14999998,  0.106250003
   2096,  -1.10000002,  0.106250003
   2097,  -1.04999995,  0.106250003
   2098,          -1.,  0.106250003
   2099, -0.949999988,  0.106250003
   2100, -0.899999976,  0.106250003
   2101, -0.850000024,  0.106250003
   2102, -0.800000012,  0.106250003
   2103,        -0.75,  0.106250003
   2104, -0.699999988,  0.106250003
   2105, -0.649999976,  0.106250003
   2106, -0.600000024,  0.106250003
   2107, -0.550000012,  0.106250003
   2108,         -0.5,  0.106250003
   2109, -0.449999988,  0.106250003
   2110, -0.400000006,  0.106250003
   2111, -0.349999994,  0.106250003
   2112, -0.300000012,  0.106250003
   2113,        -0.25,  0.106250003
   2114, -0.200000003,  0.106250003
   2115, -0.150000006,  0.106250003
   2116, -0.100000001,  0.106250003
   2117, -0.0500000007,  0.106250003
   2118,           0.,  0.106250003
   2119, 0.0500000007,  0.106250003
   2120,  0.100000001,  0.106250003
   2121,  0.150000006,  0.106250003
   2122,  0.200000003,  0.106250003
   2123,         0.25,  0.106250003
   2124,  0.300000012,  0.106250003
   2125,  0.349999994,  0.106250003
   2126,  0.400000006,  0.106250003
   2127,  0.449999988,  0.106250003
   2128,          0.5,  0.106250003
   2129,  0.550000012,  0.106250003
   2130,  0.600000024,  0.106250003
   2131,  0.649999976,  0.106250003
   2132,  0.699999988,  0.106250003
   2133,         0.75,  0.106250003
   2134,  0.800000012,  0.106250003
   2135,  0.850000024,  0.106250003
   2136,  0.899999976,  0.106250003
   2137,  0.949999988,  0.106250003
   2138,           1.,  0.106250003
   2139,   1.04999995,  0.106250003
   2140,   1.10000002,  0.106250003
   2141,   1.14999998,  0.106250003
   2142,   1.20000005,  0.106250003
   2143,         1.25,  0.106250003
   2144,   1.29999995,  0.106250003
   2145,   1.35000002,  0.106250003
   2146,   1.39999998,  0.106250003
   2147,   1.45000005,  0.106250003
   2148,          1.5,  0.106250003
   2149,   1.54999995,  0.106250003
   2150,   1.60000002,  0.106250003
   2151,   1.64999998,  0.106250003
   2152,   1.70000005,  0.106250003
   2153,         1.75,  0.106250003
   2154,   1.79999995,  0.106250003
   2155,   1.85000002,  0.106250003
   2156,   1.89999998,  0.106250003
   2157,   1.95000005,  0.106250003
   2158,           2.,  0.106250003
   2159,   2.04999995,  0.106250003
   2160,    2.0999999,  0.106250003
   2161,    2.1500001,  0.106250003
   2162,   2.20000005,  0.106250003
   2163,         2.25,  0.106250003
   2164,   2.29999995,  0.106250003
   2165,    2.3499999,  0.106250003
   2166,    2.4000001,  0.106250003
   2167,   2.45000005,  0.106250003
   2168,          2.5,  0.106250003
   2169,   2.54999995,  0.106250003
   2170,    2.5999999,  0.106250003
   2171,    2.6500001,  0.106250003
   2172,   2.70000005,  0.106250003
   2173,         2.75,  0.106250003
   2174,   2.79999995,  0.106250003
   2175,    2.8499999,  0.106250003
   2176,    2.9000001,  0.106250003
   2177,   2.95000005,  0.106250003
   2178,           3.,  0.106250003
   2179,          -3.,  0.112499997
   2180,  -2.95000005,  0.112499997
   2181,   -2.9000001,  0.112499997
   2182,   -2.8499999,  0.112499997
   2183,  -2.79999995,  0.112499997
   2184,        -2.75,  0.112499997
   2185,  -2.70000005,  0.112499997
   2186,   -2.6500001,  0.112499997
   2187,   -2.5999999,  0.112499997
   2188,  -2.54999995,  0.112499997
   2189,         -2.5,  0.112499997
   2190,  -2.45000005,  0.112499997
   2191,   -2.4000001,  0.112499997
   2192,   -2.3499999,  0.112499997
   2193,  -2.29999995,  0.112499997
   2194,        -2.25,  0.112499997
   2195,  -2.20000005,  0.112499997
   2196,   -2.1500001,  0.112499997
   2197,   -2.0999999,  0.112499997
   2198,  -2.04999995,  0.112499997
   2199,          -2.,  0.112499997
   2200,  -1.95000005,  0.112499997
   2201,  -1.89999998,  0.112499997
   2202,  -1.85000002,  0.112499997
   2203,  -1.79999995,  0.112499997
   2204,        -1.75,  0.112499997
   2205,  -1.70000005,  0.112499997
   2206,  -1.64999998,  0.112499997
   2207,  -1.60000002,  0.112499997
   2208,  -1.54999995,  0.112499997
   2209,         -1.5,  0.112499997
   2210,  -1.45000005,  0.112499997
   2211,  -1.39999998,  0.112499997
   2212,  -1.35000002,  0.112499997
   2213,  -1.29999995,  0.112499997
   2214,        -1.25,  0.112499997
   2215,  -1.20000005,  0.112499997
   2216,  -1.14999998,  0.112499997
   2217,  -1.10000002,  0.112499997
   2218,  -1.04999995,  0.112499997
   2219,          -1.,  0.112499997
   2220, -0.949999988,  0.112499997
   2221, -0.899999976,  0.112499997
   2222, -0.850000024,  0.112499997
   2223, -0.800000012,  0.112499997
   2224,        -0.75,  0.112499997
   2225, -0.699999988,  0.112499997
   2226, -0.649999976,  0.112499997
   2227, -0.600000024,  0.112499997
   2228, -0.550000012,  0.112499997
   2229,         -0.5,  0.112499997
   2230, -0.449999988,  0.112499997
   2231, -0.400000006,  0.112499997
   2232, -0.349999994,  0.112499997
   2233, -0.300000012,  0.112499997
   2234,        -0.25,  0.112499997
   2235, -0.200000003,  0.112499997
   2236, -0.150000006,  0.112499997
   2237, -0.100000001,  0.112499997
   2238, -0.0500000007,  0.112499997
   2239,           0.,  0.112499997
   2240, 0.0500000007,  0.112499997
   2241,  0.100000001,  0.112499997
   2242,  0.150000006,  0.112499997
   2243,  0.200000003,  0.112499997
   2244,         0.25,  0.112499997
   2245,  0.300000012,  0.112499997
   2246,  0.349999994,  0.112499997
   2247,  0.400000006,  0.112499997
   2248,  0.449999988,  0.112499997
   2249,          0.5,  0.112499997
   2250,  0.550000012,  0.112499997
   2251,  0.600000024,  0.112499997
   2252,  0.649999976,  0.112499997
   2253,  0.699999988,  0.112499997
   2254,         0.75,  0.112499997
   2255,  0.800000012,  0.112499997
   2256,  0.850000024,  0.112499997
   2257,  0.899999976,  0.112499997
   2258,  0.949999988,  0.112499997
   2259,           1.,  0.112499997
   2260,   1.04999995,  0.112499997
   2261,   1.10000002,  0.112499997
   2262,   1.14999998,  0.112499997
   2263,   1.20000005,  0.112499997
   2264,         1.25,  0.112499997
   2265,   1.29999995,  0.112499997
   2266,   1.35000002,  0.112499997
   2267,   1.39999998,  0.112499997
   2268,   1.45000005,  0.112499997
   2269,          1.5,  0.112499997
   2270,   1.54999995,  0.112499997
   2271,   1.60000002,  0.112499997
   2272,   1.64999998,  0.112499997
   2273,   1.70000005,  0.112499997
   2274,         1.75,  0.112499997
   2275,   1.79999995,  0.112499997
   2276,   1.85000002,  0.112499997
   2277,   1.89999998,  0.112499997
   2278,   1.95000005,  0.112499997
   2279,           2.,  0.112499997
   2280,   2.04999995,  0.112499997
   2281,    2.0999999,  0.112499997
   2282,    2.1500001,  0.112499997
   2283,   2.20000005,  0.112499997
   2284,         2.25,  0.112499997
   2285,   2.29999995,  0.112499997
   2286,    2.3499999,  0.112499997
   2287,    2.4000001,  0.112499997
   2288,   2.45000005,  0.112499997
   2289,          2.5,  0.112499997
   2290,   2.54999995,  0.112499997
   2291,    2.5999999,  0.112499997
   2292,    2.6500001,  0.112499997
   2293,   2.70000005,  0.112499997
   2294,         2.75,  0.112499997
   2295,   2.79999995,  0.112499997
   2296,    2.8499999,  0.112499997
   2297,    2.9000001,  0.112499997
   2298,   2.95000005,  0.112499997
   2299,           3.,  0.112499997
   2300,          -3.,  0.118749999
   2301,  -2.95000005,  0.118749999
   2302,   -2.9000001,  0.118749999
   2303,   -2.8499999,  0.118749999
   2304,  -2.79999995,  0.118749999
   2305,        -2.75,  0.118749999
   2306,  -2.70000005,  0.118749999
   2307,   -2.6500001,  0.118749999
   2308,   -2.5999999,  0.118749999
   2309,  -2.54999995,  0.118749999
   2310,         -2.5,  0.118749999
   2311,  -2.45000005,  0.118749999
   2312,   -2.4000001,  0.118749999
   2313,   -2.3499999,  0.118749999
   2314,  -2.29999995,  0.118749999
   2315,        -2.25,  0.118749999
   2316,  -2.20000005,  0.118749999
   2317,   -2.1500001,  0.118749999
   2318,   -2.0999999,  0.118749999
   2319,  -2.04999995,  0.118749999
   2320,          -2.,  0.118749999
   2321,  -1.95000005,  0.118749999
   2322,  -1.89999998,  0.118749999
   2323,  -1.85000002,  0.118749999
   2324,  -1.79999995,  0.118749999
   2325,        -1.75,  0.118749999
   2326,  -1.70000005,  0.118749999
   2327,  -1.64999998,  0.118749999
   2328,  -1.60000002,  0.118749999
   2329,  -1.54999995,  0.118749999
   2330,         -1.5,  0.118749999
   2331,  -1.45000005,  0.118749999
   2332,  -1.39999998,  0.118749999
   2333,  -1.35000002,  0.118749999
   2334,  -1.29999995,  0.118749999
   2335,        -1.25,  0.118749999
   2336,  -1.20000005,  0.118749999
   2337,  -1.14999998,  0.118749999
   2338,  -1.10000002,  0.118749999
   2339,  -1.04999995,  0.118749999
   2340,          -1.,  0.118749999
   2341, -0.949999988,  0.118749999
   2342, -0.899999976,  0.118749999
   2343, -0.850000024,  0.118749999
   2344, -0.800000012,  0.118749999
   2345,        -0.75,  0.118749999
   2346, -0.699999988,  0.118749999
   2347, -0.649999976,  0.118749999
   2348, -0.600000024,  0.118749999
   2349, -0.550000012,  0.118749999
   2350,         -0.5,  0.118749999
   2351, -0.449999988,  0.118749999
   2352, -0.400000006,  0.118749999
   2353, -0.349999994,  0.118749999
   2354, -0.300000012,  0.118749999
   2355,        -0.25,  0.118749999
   2356, -0.200000003,  0.118749999
   2357, -0.150000006,  0.118749999
   2358, -0.100000001,  0.118749999
   2359, -0.0500000007,  0.118749999
   2360,           0.,  0.118749999
   2361, 0.0500000007,  0.118749999
   2362,  0.100000001,  0.118749999
   2363,  0.150000006,  0.118749999
   2364,  0.200000003,  0.118749999
   2365,         0.25,  0.118749999
   2366,  0.300000012,  0.118749999
   2367,  0.349999994,  0.118749999
   2368,  0.400000006,  0.118749999
   2369,  0.449999988,  0.118749999
   2370,          0.5,  0.118749999
   2371,  0.550000012,  0.118749999
   2372,  0.600000024,  0.118749999
   2373,  0.649999976,  0.118749999
   2374,  0.699999988,  0.118749999
   2375,         0.75,  0.118749999
   2376,  0.800000012,  0.118749999
   2377,  0.850000024,  0.118749999
   2378,  0.899999976,  0.118749999
   2379,  0.949999988,  0.118749999
   2380,           1.,  0.118749999
   2381,   1.04999995,  0.118749999
   2382,   1.10000002,  0.118749999
   2383,   1.14999998,  0.118749999
   2384,   1.20000005,  0.118749999
   2385,         1.25,  0.118749999
   2386,   1.29999995,  0.118749999
   2387,   1.35000002,  0.118749999
   2388,   1.39999998,  0.118749999
   2389,   1.45000005,  0.118749999
   2390,          1.5,  0.118749999
   2391,   1.54999995,  0.118749999
   2392,   1.60000002,  0.118749999
   2393,   1.64999998,  0.118749999
   2394,   1.70000005,  0.118749999
   2395,         1.75,  0.118749999
   2396,   1.79999995,  0.118749999
   2397,   1.85000002,  0.118749999
   2398,   1.89999998,  0.118749999
   2399,   1.95000005,  0.118749999
   2400,           2.,  0.118749999
   2401,   2.04999995,  0.118749999
   2402,    2.0999999,  0.118749999
   2403,    2.1500001,  0.118749999
   2404,   2.20000005,  0.118749999
   2405,         2.25,  0.118749999
   2406,   2.29999995,  0.118749999
   2407,    2.3499999,  0.118749999
   2408,    2.4000001,  0.118749999
   2409,   2.45000005,  0.118749999
   2410,          2.5,  0.118749999
   2411,   2.54999995,  0.118749999
   2412,    2.5999999,  0.118749999
   2413,    2.6500001,  0.118749999
   2414,   2.70000005,  0.118749999
   2415,         2.75,  0.118749999
   2416,   2.79999995,  0.118749999
   2417,    2.8499999,  0.118749999
   2418,    2.9000001,  0.118749999
   2419,   2.95000005,  0.118749999
   2420,           3.,  0.118749999
   2421,          -3.,        0.125
   2422,  -2.95000005,        0.125
   2423,   -2.9000001,        0.125
   2424,   -2.8499999,        0.125
   2425,  -2.79999995,        0.125
   2426,        -2.75,        0.125
   2427,  -2.70000005,        0.125
   2428,   -2.6500001,        0.125
   2429,   -2.5999999,        0.125
   2430,  -2.54999995,        0.125
   2431,         -2.5,        0.125
   2432,  -2.45000005,        0.125
   2433,   -2.4000001,        0.125
   2434,   -2.3499999,        0.125
   2435,  -2.29999995,        0.125
   2436,        -2.25,        0.125
   2437,  -2.20000005,        0.125
   2438,   -2.1500001,        0.125
   2439,   -2.0999999,        0.125
   2440,  -2.04999995,        0.125
   2441,          -2.,        0.125
   2442,  -1.95000005,        0.125
   2443,  -1.89999998,        0.125
   2444,  -1.85000002,        0.125
   2445,  -1.79999995,        0.125
   2446,        -1.75,        0.125
   2447,  -1.70000005,        0.125
   2448,  -1.64999998,        0.125
   2449,  -1.60000002,        0.125
   2450,  -1.54999995,        0.125
   2451,         -1.5,        0.125
   2452,  -1.45000005,        0.125
   2453,  -1.39999998,        0.125
   2454,  -1.35000002,        0.125
   2455,  -1.29999995,        0.125
   2456,        -1.25,        0.125
   2457,  -1.20000005,        0.125
   2458,  -1.14999998,        0.125
   2459,  -1.10000002,        0.125
   2460,  -1.04999995,        0.125
   2461,          -1.,        0.125
   2462, -0.949999988,        0.125
   2463, -0.899999976,        0.125
   2464, -0.850000024,        0.125
   2465, -0.800000012,        0.125
   2466,        -0.75,        0.125
   2467, -0.699999988,        0.125
   2468, -0.649999976,        0.125
   2469, -0.600000024,        0.125
   2470, -0.550000012,        0.125
   2471,         -0.5,        0.125
   2472, -0.449999988,        0.125
   2473, -0.400000006,        0.125
   2474, -0.349999994,        0.125
   2475, -0.300000012,        0.125
   2476,        -0.25,        0.125
   2477, -0.200000003,        0.125
   2478, -0.150000006,        0.125
   2479, -0.100000001,        0.125
   2480, -0.0500000007,        0.125
   2481,           0.,        0.125
   2482, 0.0500000007,        0.125
   2483,  0.100000001,        0.125
   2484,  0.150000006,        0.125
   2485,  0.200000003,        0.125
   2486,         0.25,        0.125
   2487,  0.300000012,        0.125
   2488,  0.349999994,        0.125
   2489,  0.400000006,        0.125
   2490,  0.449999988,        0.125
   2491,          0.5,        0.125
   2492,  0.550000012,        0.125
   2493,  0.600000024,        0.125
   2494,  0.649999976,        0.125
   2495,  0.699999988,        0.125
   2496,         0.75,        0.125
   2497,  0.800000012,        0.125
   2498,  0.850000024,        0.125
   2499,  0.899999976,        0.125
   2500,  0.949999988,        0.125
   2501,           1.,        0.125
   2502,   1.04999995,        0.125
   2503,   1.10000002,        0.125
   2504,   1.14999998,        0.125
   2505,   1.20000005,        0.125
   2506,         1.25,        0.125
   2507,   1.29999995,        0.125
   2508,   1.35000002,        0.125
   2509,   1.39999998,        0.125
   2510,   1.45000005,        0.125
   2511,          1.5,        0.125
   2512,   1.54999995,        0.125
   2513,   1.60000002,        0.125
   2514,   1.64999998,        0.125
   2515,   1.70000005,        0.125
   2516,         1.75,        0.125
   2517,   1.79999995,        0.125
   2518,   1.85000002,        0.125
   2519,   1.89999998,        0.125
   2520,   1.95000005,        0.125
   2521,           2.,        0.125
   2522,   2.04999995,        0.125
   2523,    2.0999999,        0.125
   2524,    2.1500001,        0.125
   2525,   2.20000005,        0.125
   2526,         2.25,        0.125
   2527,   2.29999995,        0.125
   2528,    2.3499999,        0.125
   2529,    2.4000001,        0.125
   2530,   2.45000005,        0.125
   2531,          2.5,        0.125
   2532,   2.54999995,        0.125
   2533,    2.5999999,        0.125
   2534,    2.6500001,        0.125
   2535,   2.70000005,        0.125
   2536,         2.75,        0.125
   2537,   2.79999995,        0.125
   2538,    2.8499999,        0.125
   2539,    2.9000001,        0.125
   2540,   2.95000005,        0.125
   2541,           3.,        0.125
   2542,          -3.,  0.131249994
   2543,  -2.95000005,  0.131249994
   2544,   -2.9000001,  0.131249994
   2545,   -2.8499999,  0.131249994
   2546,  -2.79999995,  0.131249994
   2547,        -2.75,  0.131249994
   2548,  -2.70000005,  0.131249994
   2549,   -2.6500001,  0.131249994
   2550,   -2.5999999,  0.131249994
   2551,  -2.54999995,  0.131249994
   2552,         -2.5,  0.131249994
   2553,  -2.45000005,  0.131249994
   2554,   -2.4000001,  0.131249994
   2555,   -2.3499999,  0.131249994
   2556,  -2.29999995,  0.131249994
   2557,        -2.25,  0.131249994
   2558,  -2.20000005,  0.131249994
   2559,   -2.1500001,  0.131249994
   2560,   -2.0999999,  0.131249994
   2561,  -2.04999995,  0.131249994
   2562,          -2.,  0.131249994
   2563,  -1.95000005,  0.131249994
   2564,  -1.89999998,  0.131249994
   2565,  -1.85000002,  0.131249994
   2566,  -1.79999995,  0.131249994
   2567,        -1.75,  0.131249994
   2568,  -1.70000005,  0.131249994
   2569,  -1.64999998,  0.131249994
   2570,  -1.60000002,  0.131249994
   2571,  -1.54999995,  0.131249994
   2572,         -1.5,  0.131249994
   2573,  -1.45000005,  0.131249994
   2574,  -1.39999998,  0.131249994
   2575,  -1.35000002,  0.131249994
   2576,  -1.29999995,  0.131249994
   2577,        -1.25,  0.131249994
   2578,  -1.20000005,  0.131249994
   2579,  -1.14999998,  0.131249994
   2580,  -1.10000002,  0.131249994
   2581,  -1.04999995,  0.131249994
   2582,          -1.,  0.131249994
   2583, -0.949999988,  0.131249994
   2584, -0.899999976,  0.131249994
   2585, -0.850000024,  0.131249994
   2586, -0.800000012,  0.131249994
   2587,        -0.75,  0.131249994
   2588, -0.699999988,  0.131249994
   2589, -0.649999976,  0.131249994
   2590, -0.600000024,  0.131249994
   2591, -0.550000012,  0.131249994
   2592,         -0.5,  0.131249994
   2593, -0.449999988,  0.131249994
   2594, -0.400000006,  0.131249994
   2595, -0.349999994,  0.131249994
   2596, -0.300000012,  0.131249994
   2597,        -0.25,  0.131249994
   2598, -0.200000003,  0.131249994
   2599, -0.150000006,  0.131249994
   2600, -0.100000001,  0.131249994
   2601, -0.0500000007,  0.131249994
   2602,           0.,  0.131249994
   2603, 0.0500000007,  0.131249994
   2604,  0.100000001,  0.131249994
   2605,  0.150000006,  0.131249994
   2606,  0.200000003,  0.131249994
   2607,         0.25,  0.131249994
   2608,  0.300000012,  0.131249994
   2609,  0.349999994,  0.131249994
   2610,  0.400000006,  0.131249994
   2611,  0.449999988,  0.131249994
   2612,          0.5,  0.131249994
   2613,  0.550000012,  0.131249994
   2614,  0.600000024,  0.131249994
   2615,  0.649999976,  0.131249994
   2616,  0.699999988,  0.131249994
   2617,         0.75,  0.131249994
   2618,  0.800000012,  0.131249994
   2619,  0.850000024,  0.131249994
   2620,  0.899999976,  0.131249994
   2621,  0.949999988,  0.131249994
   2622,           1.,  0.131249994
   2623,   1.04999995,  0.131249994
   2624,   1.10000002,  0.131249994
   2625,   1.14999998,  0.131249994
   2626,   1.20000005,  0.131249994
   2627,         1.25,  0.131249994
   2628,   1.29999995,  0.131249994
   2629,   1.35000002,  0.131249994
   2630,   1.39999998,  0.131249994
   2631,   1.45000005,  0.131249994
   2632,          1.5,  0.131249994
   2633,   1.54999995,  0.131249994
   2634,   1.60000002,  0.131249994
   2635,   1.64999998,  0.131249994
   2636,   1.70000005,  0.131249994
   2637,         1.75,  0.131249994
   2638,   1.79999995,  0.131249994
   2639,   1.85000002,  0.131249994
   2640,   1.89999998,  0.131249994
   2641,   1.95000005,  0.131249994
   2642,           2.,  0.131249994
   2643,   2.04999995,  0.131249994
   2644,    2.0999999,  0.131249994
   2645,    2.1500001,  0.131249994
   2646,   2.20000005,  0.131249994
   2647,         2.25,  0.131249994
   2648,   2.29999995,  0.131249994
   2649,    2.3499999,  0.131249994
   2650,    2.4000001,  0.131249994
   2651,   2.45000005,  0.131249994
   2652,          2.5,  0.131249994
   2653,   2.54999995,  0.131249994
   2654,    2.5999999,  0.131249994
   2655,    2.6500001,  0.131249994
   2656,   2.70000005,  0.131249994
   2657,         2.75,  0.131249994
   2658,   2.79999995,  0.131249994
   2659,    2.8499999,  0.131249994
   2660,    2.9000001,  0.131249994
   2661,   2.95000005,  0.131249994
   2662,           3.,  0.131249994
   2663,          -3.,  0.137500003
   2664,  -2.95000005,  0.137500003
   2665,   -2.9000001,  0.137500003
   2666,   -2.8499999,  0.137500003
   2667,  -2.79999995,  0.137500003
   2668,        -2.75,  0.137500003
   2669,  -2.70000005,  0.137500003
   2670,   -2.6500001,  0.137500003
   2671,   -2.5999999,  0.137500003
   2672,  -2.54999995,  0.137500003
   2673,         -2.5,  0.137500003
   2674,  -2.45000005,  0.137500003
   2675,   -2.4000001,  0.137500003
   2676,   -2.3499999,  0.137500003
   2677,  -2.29999995,  0.137500003
   2678,        -2.25,  0.137500003
   2679,  -2.20000005,  0.137500003
   2680,   -2.1500001,  0.137500003
   2681,   -2.0999999,  0.137500003
   2682,  -2.04999995,  0.137500003
   2683,          -2.,  0.137500003
   2684,  -1.95000005,  0.137500003
   2685,  -1.89999998,  0.137500003
   2686,  -1.85000002,  0.137500003
   2687,  -1.79999995,  0.137500003
   2688,        -1.75,  0.137500003
   2689,  -1.70000005,  0.137500003
   2690,  -1.64999998,  0.137500003
   2691,  -1.60000002,  0.137500003
   2692,  -1.54999995,  0.137500003
   2693,         -1.5,  0.137500003
   2694,  -1.45000005,  0.137500003
   2695,  -1.39999998,  0.137500003
   2696,  -1.35000002,  0.137500003
   2697,  -1.29999995,  0.137500003
   2698,        -1.25,  0.137500003
   2699,  -1.20000005,  0.137500003
   2700,  -1.14999998,  0.137500003
   2701,  -1.10000002,  0.137500003
   2702,  -1.04999995,  0.137500003
   2703,          -1.,  0.137500003
   2704, -0.949999988,  0.137500003
   2705, -0.899999976,  0.137500003
   2706, -0.850000024,  0.137500003
   2707, -0.800000012,  0.137500003
   2708,        -0.75,  0.137500003
   2709, -0.699999988,  0.137500003
   2710, -0.649999976,  0.137500003
   2711, -0.600000024,  0.137500003
   2712, -0.550000012,  0.137500003
   2713,         -0.5,  0.137500003
   2714, -0.449999988,  0.137500003
   2715, -0.400000006,  0.137500003
   2716, -0.349999994,  0.137500003
   2717, -0.300000012,  0.137500003
   2718,        -0.25,  0.137500003
   2719, -0.200000003,  0.137500003
   2720, -0.150000006,  0.137500003
   2721, -0.100000001,  0.137500003
   2722, -0.0500000007,  0.137500003
   2723,           0.,  0.137500003
   2724, 0.0500000007,  0.137500003
   2725,  0.100000001,  0.137500003
   2726,  0.150000006,  0.137500003
   2727,  0.200000003,  0.137500003
   2728,         0.25,  0.137500003
   2729,  0.300000012,  0.137500003
   2730,  0.349999994,  0.137500003
   2731,  0.400000006,  0.137500003
   2732,  0.449999988,  0.137500003
   2733,          0.5,  0.137500003
   2734,  0.550000012,  0.137500003
   2735,  0.600000024,  0.137500003
   2736,  0.649999976,  0.137500003
   2737,  0.699999988,  0.137500003
   2738,         0.75,  0.137500003
   2739,  0.800000012,  0.137500003
   2740,  0.850000024,  0.137500003
   2741,  0.899999976,  0.137500003
   2742,  0.949999988,  0.137500003
   2743,           1.,  0.137500003
   2744,   1.04999995,  0.137500003
   2745,   1.10000002,  0.137500003
   2746,   1.14999998,  0.137500003
   2747,   1.20000005,  0.137500003
   2748,         1.25,  0.137500003
   2749,   1.29999995,  0.137500003
   2750,   1.35000002,  0.137500003
   2751,   1.39999998,  0.137500003
   2752,   1.45000005,  0.137500003
   2753,          1.5,  0.137500003
   2754,   1.54999995,  0.137500003
   2755,   1.60000002,  0.137500003
   2756,   1.64999998,  0.137500003
   2757,   1.70000005,  0.137500003
   2758,         1.75,  0.137500003
   2759,   1.79999995,  0.137500003
   2760,   1.85000002,  0.137500003
   2761,   1.89999998,  0.137500003
   2762,   1.95000005,  0.137500003
   2763,           2.,  0.137500003
   2764,   2.04999995,  0.137500003
   2765,    2.0999999,  0.137500003
   2766,    2.1500001,  0.137500003
   2767,   2.20000005,  0.137500003
   2768,         2.25,  0.137500003
   2769,   2.29999995,  0.137500003
   2770,    2.3499999,  0.137500003
   2771,    2.4000001,  0.137500003
   2772,   2.45000005,  0.137500003
   2773,          2.5,  0.137500003
   2774,   2.54999995,  0.137500003
   2775,    2.5999999,  0.137500003
   2776,    2.6500001,  0.137500003
   2777,   2.70000005,  0.137500003
   2778,         2.75,  0.137500003
   2779,   2.79999995,  0.137500003
   2780,    2.8499999,  0.137500003
   2781,    2.9000001,  0.137500003
   2782,   2.95000005,  0.137500003
   2783,           3.,  0.137500003
   2784,          -3.,  0.143749997
   2785,  -2.95000005,  0.143749997
   2786,   -2.9000001,  0.143749997
   2787,   -2.8499999,  0.143749997
   2788,  -2.79999995,  0.143749997
   2789,        -2.75,  0.143749997
   2790,  -2.70000005,  0.143749997
   2791,   -2.6500001,  0.143749997
   2792,   -2.5999999,  0.143749997
   2793,  -2.54999995,  0.143749997
   2794,         -2.5,  0.143749997
   2795,  -2.45000005,  0.143749997
   2796,   -2.4000001,  0.143749997
   2797,   -2.3499999,  0.143749997
   2798,  -2.29999995,  0.143749997
   2799,        -2.25,  0.143749997
   2800,  -2.20000005,  0.143749997
   2801,   -2.1500001,  0.143749997
   2802,   -2.0999999,  0.143749997
   2803,  -2.04999995,  0.143749997
   2804,          -2.,  0.143749997
   2805,  -1.95000005,  0.143749997
   2806,  -1.89999998,  0.143749997
   2807,  -1.85000002,  0.143749997
   2808,  -1.79999995,  0.143749997
   2809,        -1.75,  0.143749997
   2810,  -1.70000005,  0.143749997
   2811,  -1.64999998,  0.143749997
   2812,  -1.60000002,  0.143749997
   2813,  -1.54999995,  0.143749997
   2814,         -1.5,  0.143749997
   2815,  -1.45000005,  0.143749997
   2816,  -1.39999998,  0.143749997
   2817,  -1.35000002,  0.143749997
   2818,  -1.29999995,  0.143749997
   2819,        -1.25,  0.143749997
   2820,  -1.20000005,  0.143749997
   2821,  -1.14999998,  0.143749997
   2822,  -1.10000002,  0.143749997
   2823,  -1.04999995,  0.143749997
   2824,          -1.,  0.143749997
   2825, -0.949999988,  0.143749997
   2826, -0.899999976,  0.143749997
   2827, -0.850000024,  0.143749997
   2828, -0.800000012,  0.143749997
   2829,        -0.75,  0.143749997
   2830, -0.699999988,  0.143749997
   2831, -0.649999976,  0.143749997
   2832, -0.600000024,  0.143749997
   2833, -0.550000012,  0.143749997
   2834,         -0.5,  0.143749997
   2835, -0.449999988,  0.143749997
   2836, -0.400000006,  0.143749997
   2837, -0.349999994,  0.143749997
   2838, -0.300000012,  0.143749997
   2839,        -0.25,  0.143749997
   2840, -0.200000003,  0.143749997
   2841, -0.150000006,  0.143749997
   2842, -0.100000001,  0.143749997
   2843, -0.0500000007,  0.143749997
   2844,           0.,  0.143749997
   2845, 0.0500000007,  0.143749997
   2846,  0.100000001,  0.143749997
   2847,  0.150000006,  0.143749997
   2848,  0.200000003,  0.143749997
   2849,         0.25,  0.143749997
   2850,  0.300000012,  0.143749997
   2851,  0.349999994,  0.143749997
   2852,  0.400000006,  0.143749997
   2853,  0.449999988,  0.143749997
   2854,          0.5,  0.143749997
   2855,  0.550000012,  0.143749997
   2856,  0.600000024,  0.143749997
   2857,  0.649999976,  0.143749997
   2858,  0.699999988,  0.143749997
   2859,         0.75,  0.143749997
   2860,  0.800000012,  0.143749997
   2861,  0.850000024,  0.143749997
   2862,  0.899999976,  0.143749997
   2863,  0.949999988,  0.143749997
   2864,           1.,  0.143749997
   2865,   1.04999995,  0.143749997
   2866,   1.10000002,  0.143749997
   2867,   1.14999998,  0.143749997
   2868,   1.20000005,  0.143749997
   2869,         1.25,  0.143749997
   2870,   1.29999995,  0.143749997
   2871,   1.35000002,  0.143749997
   2872,   1.39999998,  0.143749997
   2873,   1.45000005,  0.143749997
   2874,          1.5,  0.143749997
   2875,   1.54999995,  0.143749997
   2876,   1.60000002,  0.143749997
   2877,   1.64999998,  0.143749997
   2878,   1.70000005,  0.143749997
   2879,         1.75,  0.143749997
   2880,   1.79999995,  0.143749997
   2881,   1.85000002,  0.143749997
   2882,   1.89999998,  0.143749997
   2883,   1.95000005,  0.143749997
   2884,           2.,  0.143749997
   2885,   2.04999995,  0.143749997
   2886,    2.0999999,  0.143749997
   2887,    2.1500001,  0.143749997
   2888,   2.20000005,  0.143749997
   2889,         2.25,  0.143749997
   2890,   2.29999995,  0.143749997
   2891,    2.3499999,  0.143749997
   2892,    2.4000001,  0.143749997
   2893,   2.45000005,  0.143749997
   2894,          2.5,  0.143749997
   2895,   2.54999995,  0.143749997
   2896,    2.5999999,  0.143749997
   2897,    2.6500001,  0.143749997
   2898,   2.70000005,  0.143749997
   2899,         2.75,  0.143749997
   2900,   2.79999995,  0.143749997
   2901,    2.8499999,  0.143749997
   2902,    2.9000001,  0.143749997
   2903,   2.95000005,  0.143749997
   2904,           3.,  0.143749997
   2905,          -3.,  0.150000006
   2906,  -2.95000005,  0.150000006
   2907,   -2.9000001,  0.150000006
   2908,   -2.8499999,  0.150000006
   2909,  -2.79999995,  0.150000006
   2910,        -2.75,  0.150000006
   2911,  -2.70000005,  0.150000006
   2912,   -2.6500001,  0.150000006
   2913,   -2.5999999,  0.150000006
   2914,  -2.54999995,  0.150000006
   2915,         -2.5,  0.150000006
   2916,  -2.45000005,  0.150000006
   2917,   -2.4000001,  0.150000006
   2918,   -2.3499999,  0.150000006
   2919,  -2.29999995,  0.150000006
   2920,        -2.25,  0.150000006
   2921,  -2.20000005,  0.150000006
   2922,   -2.1500001,  0.150000006
   2923,   -2.0999999,  0.150000006
   2924,  -2.04999995,  0.150000006
   2925,          -2.,  0.150000006
   2926,  -1.95000005,  0.150000006
   2927,  -1.89999998,  0.150000006
   2928,  -1.85000002,  0.150000006
   2929,  -1.79999995,  0.150000006
   2930,        -1.75,  0.150000006
   2931,  -1.70000005,  0.150000006
   2932,  -1.64999998,  0.150000006
   2933,  -1.60000002,  0.150000006
   2934,  -1.54999995,  0.150000006
   2935,         -1.5,  0.150000006
   2936,  -1.45000005,  0.150000006
   2937,  -1.39999998,  0.150000006
   2938,  -1.35000002,  0.150000006
   2939,  -1.29999995,  0.150000006
   2940,        -1.25,  0.150000006
   2941,  -1.20000005,  0.150000006
   2942,  -1.14999998,  0.150000006
   2943,  -1.10000002,  0.150000006
   2944,  -1.04999995,  0.150000006
   2945,          -1.,  0.150000006
   2946, -0.949999988,  0.150000006
   2947, -0.899999976,  0.150000006
   2948, -0.850000024,  0.150000006
   2949, -0.800000012,  0.150000006
   2950,        -0.75,  0.150000006
   2951, -0.699999988,  0.150000006
   2952, -0.649999976,  0.150000006
   2953, -0.600000024,  0.150000006
   2954, -0.550000012,  0.150000006
   2955,         -0.5,  0.150000006
   2956, -0.449999988,  0.150000006
   2957, -0.400000006,  0.150000006
   2958, -0.349999994,  0.150000006
   2959, -0.300000012,  0.150000006
   2960,        -0.25,  0.150000006
   2961, -0.200000003,  0.150000006
   2962, -0.150000006,  0.150000006
   2963, -0.100000001,  0.150000006
   2964, -0.0500000007,  0.150000006
   2965,           0.,  0.150000006
   2966, 0.0500000007,  0.150000006
   2967,  0.100000001,  0.150000006
   2968,  0.150000006,  0.150000006
   2969,  0.200000003,  0.150000006
   2970,         0.25,  0.150000006
   2971,  0.300000012,  0.150000006
   2972,  0.349999994,  0.150000006
   2973,  0.400000006,  0.150000006
   2974,  0.449999988,  0.150000006
   2975,          0.5,  0.150000006
   2976,  0.550000012,  0.150000006
   2977,  0.600000024,  0.150000006
   2978,  0.649999976,  0.150000006
   2979,  0.699999988,  0.150000006
   2980,         0.75,  0.150000006
   2981,  0.800000012,  0.150000006
   2982,  0.850000024,  0.150000006
   2983,  0.899999976,  0.150000006
   2984,  0.949999988,  0.150000006
   2985,           1.,  0.150000006
   2986,   1.04999995,  0.150000006
   2987,   1.10000002,  0.150000006
   2988,   1.14999998,  0.150000006
   2989,   1.20000005,  0.150000006
   2990,         1.25,  0.150000006
   2991,   1.29999995,  0.150000006
   2992,   1.35000002,  0.150000006
   2993,   1.39999998,  0.150000006
   2994,   1.45000005,  0.150000006
   2995,          1.5,  0.150000006
   2996,   1.54999995,  0.150000006
   2997,   1.60000002,  0.150000006
   2998,   1.64999998,  0.150000006
   2999,   1.70000005,  0.150000006
   3000,         1.75,  0.150000006
   3001,   1.79999995,  0.150000006
   3002,   1.85000002,  0.150000006
   3003,   1.89999998,  0.150000006
   3004,   1.95000005,  0.150000006
   3005,           2.,  0.150000006
   3006,   2.04999995,  0.150000006
   3007,    2.0999999,  0.150000006
   3008,    2.1500001,  0.150000006
   3009,   2.20000005,  0.150000006
   3010,         2.25,  0.150000006
   3011,   2.29999995,  0.150000006
   3012,    2.3499999,  0.150000006
   3013,    2.4000001,  0.150000006
   3014,   2.45000005,  0.150000006
   3015,          2.5,  0.150000006
   3016,   2.54999995,  0.150000006
   3017,    2.5999999,  0.150000006
   3018,    2.6500001,  0.150000006
   3019,   2.70000005,  0.150000006
   3020,         2.75,  0.150000006
   3021,   2.79999995,  0.150000006
   3022,    2.8499999,  0.150000006
   3023,    2.9000001,  0.150000006
   3024,   2.95000005,  0.150000006
   3025,           3.,  0.150000006
*Element, type=CPE4R
   1,    1,    2,  123,  122
   2,    2,    3,  124,  123
   3,    3,    4,  125,  124
   4,    4,    5,  126,  125
   5,    5,    6,  127,  126
   6,    6,    7,  128,  127
   7,    7,    8,  129,  128
   8,    8,    9,  130,  129
   9,    9,   10,  131,  130
  10,   10,   11,  132,  131
  11,   11,   12,  133,  132
  12,   12,   13,  134,  133
  13,   13,   14,  135,  134
  14,   14,   15,  136,  135
  15,   15,   16,  137,  136
  16,   16,   17,  138,  137
  17,   17,   18,  139,  138
  18,   18,   19,  140,  139
  19,   19,   20,  141,  140
  20,   20,   21,  142,  141
  21,   21,   22,  143,  142
  22,   22,   23,  144,  143
  23,   23,   24,  145,  144
  24,   24,   25,  146,  145
  25,   25,   26,  147,  146
  26,   26,   27,  148,  147
  27,   27,   28,  149,  148
  28,   28,   29,  150,  149
  29,   29,   30,  151,  150
  30,   30,   31,  152,  151
  31,   31,   32,  153,  152
  32,   32,   33,  154,  153
  33,   33,   34,  155,  154
  34,   34,   35,  156,  155
  35,   35,   36,  157,  156
  36,   36,   37,  158,  157
  37,   37,   38,  159,  158
  38,   38,   39,  160,  159
  39,   39,   40,  161,  160
  40,   40,   41,  162,  161
  41,   41,   42,  163,  162
  42,   42,   43,  164,  163
  43,   43,   44,  165,  164
  44,   44,   45,  166,  165
  45,   45,   46,  167,  166
  46,   46,   47,  168,  167
  47,   47,   48,  169,  168
  48,   48,   49,  170,  169
  49,   49,   50,  171,  170
  50,   50,   51,  172,  171
  51,   51,   52,  173,  172
  52,   52,   53,  174,  173
  53,   53,   54,  175,  174
  54,   54,   55,  176,  175
  55,   55,   56,  177,  176
  56,   56,   57,  178,  177
  57,   57,   58,  179,  178
  58,   58,   59,  180,  179
  59,   59,   60,  181,  180
  60,   60,   61,  182,  181
  61,   61,   62,  183,  182
  62,   62,   63,  184,  183
  63,   63,   64,  185,  184
  64,   64,   65,  186,  185
  65,   65,   66,  187,  186
  66,   66,   67,  188,  187
  67,   67,   68,  189,  188
  68,   68,   69,  190,  189
  69,   69,   70,  191,  190
  70,   70,   71,  192,  191
  71,   71,   72,  193,  192
  72,   72,   73,  194,  193
  73,   73,   74,  195,  194
  74,   74,   75,  196,  195
  75,   75,   76,  197,  196
  76,   76,   77,  198,  197
  77,   77,   78,  199,  198
  78,   78,   79,  200,  199
  79,   79,   80,  201,  200
  80,   80,   81,  202,  201
  81,   81,   82,  203,  202
  82,   82,   83,  204,  203
  83,   83,   84,  205,  204
  84,   84,   85,  206,  205
  85,   85,   86,  207,  206
  86,   86,   87,  208,  207
  87,   87,   88,  209,  208
  88,   88,   89,  210,  209
  89,   89,   90,  211,  210
  90,   90,   91,  212,  211
  91,   91,   92,  213,  212
  92,   92,   93,  214,  213
  93,   93,   94,  215,  214
  94,   94,   95,  216,  215
  95,   95,   96,  217,  216
  96,   96,   97,  218,  217
  97,   97,   98,  219,  218
  98,   98,   99,  220,  219
  99,   99,  100,  221,  220
 100,  100,  101,  222,  221
 101,  101,  102,  223,  222
 102,  102,  103,  224,  223
 103,  103,  104,  225,  224
 104,  104,  105,  226,  225
 105,  105,  106,  227,  226
 106,  106,  107,  228,  227
 107,  107,  108,  229,  228
 108,  108,  109,  230,  229
 109,  109,  110,  231,  230
 110,  110,  111,  232,  231
 111,  111,  112,  233,  232
 112,  112,  113,  234,  233
 113,  113,  114,  235,  234
 114,  114,  115,  236,  235
 115,  115,  116,  237,  236
 116,  116,  117,  238,  237
 117,  117,  118,  239,  238
 118,  118,  119,  240,  239
 119,  119,  120,  241,  240
 120,  120,  121,  242,  241
 121,  122,  123,  244,  243
 122,  123,  124,  245,  244
 123,  124,  125,  246,  245
 124,  125,  126,  247,  246
 125,  126,  127,  248,  247
 126,  127,  128,  249,  248
 127,  128,  129,  250,  249
 128,  129,  130,  251,  250
 129,  130,  131,  252,  251
 130,  131,  132,  253,  252
 131,  132,  133,  254,  253
 132,  133,  134,  255,  254
 133,  134,  135,  256,  255
 134,  135,  136,  257,  256
 135,  136,  137,  258,  257
 136,  137,  138,  259,  258
 137,  138,  139,  260,  259
 138,  139,  140,  261,  260
 139,  140,  141,  262,  261
 140,  141,  142,  263,  262
 141,  142,  143,  264,  263
 142,  143,  144,  265,  264
 143,  144,  145,  266,  265
 144,  145,  146,  267,  266
 145,  146,  147,  268,  267
 146,  147,  148,  269,  268
 147,  148,  149,  270,  269
 148,  149,  150,  271,  270
 149,  150,  151,  272,  271
 150,  151,  152,  273,  272
 151,  152,  153,  274,  273
 152,  153,  154,  275,  274
 153,  154,  155,  276,  275
 154,  155,  156,  277,  276
 155,  156,  157,  278,  277
 156,  157,  158,  279,  278
 157,  158,  159,  280,  279
 158,  159,  160,  281,  280
 159,  160,  161,  282,  281
 160,  161,  162,  283,  282
 161,  162,  163,  284,  283
 162,  163,  164,  285,  284
 163,  164,  165,  286,  285
 164,  165,  166,  287,  286
 165,  166,  167,  288,  287
 166,  167,  168,  289,  288
 167,  168,  169,  290,  289
 168,  169,  170,  291,  290
 169,  170,  171,  292,  291
 170,  171,  172,  293,  292
 171,  172,  173,  294,  293
 172,  173,  174,  295,  294
 173,  174,  175,  296,  295
 174,  175,  176,  297,  296
 175,  176,  177,  298,  297
 176,  177,  178,  299,  298
 177,  178,  179,  300,  299
 178,  179,  180,  301,  300
 179,  180,  181,  302,  301
 180,  181,  182,  303,  302
 181,  182,  183,  304,  303
 182,  183,  184,  305,  304
 183,  184,  185,  306,  305
 184,  185,  186,  307,  306
 185,  186,  187,  308,  307
 186,  187,  188,  309,  308
 187,  188,  189,  310,  309
 188,  189,  190,  311,  310
 189,  190,  191,  312,  311
 190,  191,  192,  313,  312
 191,  192,  193,  314,  313
 192,  193,  194,  315,  314
 193,  194,  195,  316,  315
 194,  195,  196,  317,  316
 195,  196,  197,  318,  317
 196,  197,  198,  319,  318
 197,  198,  199,  320,  319
 198,  199,  200,  321,  320
 199,  200,  201,  322,  321
 200,  201,  202,  323,  322
 201,  202,  203,  324,  323
 202,  203,  204,  325,  324
 203,  204,  205,  326,  325
 204,  205,  206,  327,  326
 205,  206,  207,  328,  327
 206,  207,  208,  329,  328
 207,  208,  209,  330,  329
 208,  209,  210,  331,  330
 209,  210,  211,  332,  331
 210,  211,  212,  333,  332
 211,  212,  213,  334,  333
 212,  213,  214,  335,  334
 213,  214,  215,  336,  335
 214,  215,  216,  337,  336
 215,  216,  217,  338,  337
 216,  217,  218,  339,  338
 217,  218,  219,  340,  339
 218,  219,  220,  341,  340
 219,  220,  221,  342,  341
 220,  221,  222,  343,  342
 221,  222,  223,  344,  343
 222,  223,  224,  345,  344
 223,  224,  225,  346,  345
 224,  225,  226,  347,  346
 225,  226,  227,  348,  347
 226,  227,  228,  349,  348
 227,  228,  229,  350,  349
 228,  229,  230,  351,  350
 229,  230,  231,  352,  351
 230,  231,  232,  353,  352
 231,  232,  233,  354,  353
 232,  233,  234,  355,  354
 233,  234,  235,  356,  355
 234,  235,  236,  357,  356
 235,  236,  237,  358,  357
 236,  237,  238,  359,  358
 237,  238,  239,  360,  359
 238,  239,  240,  361,  360
 239,  240,  241,  362,  361
 240,  241,  242,  363,  362
 241,  243,  244,  365,  364
 242,  244,  245,  366,  365
 243,  245,  246,  367,  366
 244,  246,  247,  368,  367
 245,  247,  248,  369,  368
 246,  248,  249,  370,  369
 247,  249,  250,  371,  370
 248,  250,  251,  372,  371
 249,  251,  252,  373,  372
 250,  252,  253,  374,  373
 251,  253,  254,  375,  374
 252,  254,  255,  376,  375
 253,  255,  256,  377,  376
 254,  256,  257,  378,  377
 255,  257,  258,  379,  378
 256,  258,  259,  380,  379
 257,  259,  260,  381,  380
 258,  260,  261,  382,  381
 259,  261,  262,  383,  382
 260,  262,  263,  384,  383
 261,  263,  264,  385,  384
 262,  264,  265,  386,  385
 263,  265,  266,  387,  386
 264,  266,  267,  388,  387
 265,  267,  268,  389,  388
 266,  268,  269,  390,  389
 267,  269,  270,  391,  390
 268,  270,  271,  392,  391
 269,  271,  272,  393,  392
 270,  272,  273,  394,  393
 271,  273,  274,  395,  394
 272,  274,  275,  396,  395
 273,  275,  276,  397,  396
 274,  276,  277,  398,  397
 275,  277,  278,  399,  398
 276,  278,  279,  400,  399
 277,  279,  280,  401,  400
 278,  280,  281,  402,  401
 279,  281,  282,  403,  402
 280,  282,  283,  404,  403
 281,  283,  284,  405,  404
 282,  284,  285,  406,  405
 283,  285,  286,  407,  406
 284,  286,  287,  408,  407
 285,  287,  288,  409,  408
 286,  288,  289,  410,  409
 287,  289,  290,  411,  410
 288,  290,  291,  412,  411
 289,  291,  292,  413,  412
 290,  292,  293,  414,  413
 291,  293,  294,  415,  414
 292,  294,  295,  416,  415
 293,  295,  296,  417,  416
 294,  296,  297,  418,  417
 295,  297,  298,  419,  418
 296,  298,  299,  420,  419
 297,  299,  300,  421,  420
 298,  300,  301,  422,  421
 299,  301,  302,  423,  422
 300,  302,  303,  424,  423
 301,  303,  304,  425,  424
 302,  304,  305,  426,  425
 303,  305,  306,  427,  426
 304,  306,  307,  428,  427
 305,  307,  308,  429,  428
 306,  308,  309,  430,  429
 307,  309,  310,  431,  430
 308,  310,  311,  432,  431
 309,  311,  312,  433,  432
 310,  312,  313,  434,  433
 311,  313,  314,  435,  434
 312,  314,  315,  436,  435
 313,  315,  316,  437,  436
 314,  316,  317,  438,  437
 315,  317,  318,  439,  438
 316,  318,  319,  440,  439
 317,  319,  320,  441,  440
 318,  320,  321,  442,  441
 319,  321,  322,  443,  442
 320,  322,  323,  444,  443
 321,  323,  324,  445,  444
 322,  324,  325,  446,  445
 323,  325,  326,  447,  446
 324,  326,  327,  448,  447
 325,  327,  328,  449,  448
 326,  328,  329,  450,  449
 327,  329,  330,  451,  450
 328,  330,  331,  452,  451
 329,  331,  332,  453,  452
 330,  332,  333,  454,  453
 331,  333,  334,  455,  454
 332,  334,  335,  456,  455
 333,  335,  336,  457,  456
 334,  336,  337,  458,  457
 335,  337,  338,  459,  458
 336,  338,  339,  460,  459
 337,  339,  340,  461,  460
 338,  340,  341,  462,  461
 339,  341,  342,  463,  462
 340,  342,  343,  464,  463
 341,  343,  344,  465,  464
 342,  344,  345,  466,  465
 343,  345,  346,  467,  466
 344,  346,  347,  468,  467
 345,  347,  348,  469,  468
 346,  348,  349,  470,  469
 347,  349,  350,  471,  470
 348,  350,  351,  472,  471
 349,  351,  352,  473,  472
 350,  352,  353,  474,  473
 351,  353,  354,  475,  474
 352,  354,  355,  476,  475
 353,  355,  356,  477,  476
 354,  356,  357,  478,  477
 355,  357,  358,  479,  478
 356,  358,  359,  480,  479
 357,  359,  360,  481,  480
 358,  360,  361,  482,  481
 359,  361,  362,  483,  482
 360,  362,  363,  484,  483
 361,  364,  365,  486,  485
 362,  365,  366,  487,  486
 363,  366,  367,  488,  487
 364,  367,  368,  489,  488
 365,  368,  369,  490,  489
 366,  369,  370,  491,  490
 367,  370,  371,  492,  491
 368,  371,  372,  493,  492
 369,  372,  373,  494,  493
 370,  373,  374,  495,  494
 371,  374,  375,  496,  495
 372,  375,  376,  497,  496
 373,  376,  377,  498,  497
 374,  377,  378,  499,  498
 375,  378,  379,  500,  499
 376,  379,  380,  501,  500
 377,  380,  381,  502,  501
 378,  381,  382,  503,  502
 379,  382,  383,  504,  503
 380,  383,  384,  505,  504
 381,  384,  385,  506,  505
 382,  385,  386,  507,  506
 383,  386,  387,  508,  507
 384,  387,  388,  509,  508
 385,  388,  389,  510,  509
 386,  389,  390,  511,  510
 387,  390,  391,  512,  511
 388,  391,  392,  513,  512
 389,  392,  393,  514,  513
 390,  393,  394,  515,  514
 391,  394,  395,  516,  515
 392,  395,  396,  517,  516
 393,  396,  397,  518,  517
 394,  397,  398,  519,  518
 395,  398,  399,  520,  519
 396,  399,  400,  521,  520
 397,  400,  401,  522,  521
 398,  401,  402,  523,  522
 399,  402,  403,  524,  523
 400,  403,  404,  525,  524
 401,  404,  405,  526,  525
 402,  405,  406,  527,  526
 403,  406,  407,  528,  527
 404,  407,  408,  529,  528
 405,  408,  409,  530,  529
 406,  409,  410,  531,  530
 407,  410,  411,  532,  531
 408,  411,  412,  533,  532
 409,  412,  413,  534,  533
 410,  413,  414,  535,  534
 411,  414,  415,  536,  535
 412,  415,  416,  537,  536
 413,  416,  417,  538,  537
 414,  417,  418,  539,  538
 415,  418,  419,  540,  539
 416,  419,  420,  541,  540
 417,  420,  421,  542,  541
 418,  421,  422,  543,  542
 419,  422,  423,  544,  543
 420,  423,  424,  545,  544
 421,  424,  425,  546,  545
 422,  425,  426,  547,  546
 423,  426,  427,  548,  547
 424,  427,  428,  549,  548
 425,  428,  429,  550,  549
 426,  429,  430,  551,  550
 427,  430,  431,  552,  551
 428,  431,  432,  553,  552
 429,  432,  433,  554,  553
 430,  433,  434,  555,  554
 431,  434,  435,  556,  555
 432,  435,  436,  557,  556
 433,  436,  437,  558,  557
 434,  437,  438,  559,  558
 435,  438,  439,  560,  559
 436,  439,  440,  561,  560
 437,  440,  441,  562,  561
 438,  441,  442,  563,  562
 439,  442,  443,  564,  563
 440,  443,  444,  565,  564
 441,  444,  445,  566,  565
 442,  445,  446,  567,  566
 443,  446,  447,  568,  567
 444,  447,  448,  569,  568
 445,  448,  449,  570,  569
 446,  449,  450,  571,  570
 447,  450,  451,  572,  571
 448,  451,  452,  573,  572
 449,  452,  453,  574,  573
 450,  453,  454,  575,  574
 451,  454,  455,  576,  575
 452,  455,  456,  577,  576
 453,  456,  457,  578,  577
 454,  457,  458,  579,  578
 455,  458,  459,  580,  579
 456,  459,  460,  581,  580
 457,  460,  461,  582,  581
 458,  461,  462,  583,  582
 459,  462,  463,  584,  583
 460,  463,  464,  585,  584
 461,  464,  465,  586,  585
 462,  465,  466,  587,  586
 463,  466,  467,  588,  587
 464,  467,  468,  589,  588
 465,  468,  469,  590,  589
 466,  469,  470,  591,  590
 467,  470,  471,  592,  591
 468,  471,  472,  593,  592
 469,  472,  473,  594,  593
 470,  473,  474,  595,  594
 471,  474,  475,  596,  595
 472,  475,  476,  597,  596
 473,  476,  477,  598,  597
 474,  477,  478,  599,  598
 475,  478,  479,  600,  599
 476,  479,  480,  601,  600
 477,  480,  481,  602,  601
 478,  481,  482,  603,  602
 479,  482,  483,  604,  603
 480,  483,  484,  605,  604
 481,  485,  486,  607,  606
 482,  486,  487,  608,  607
 483,  487,  488,  609,  608
 484,  488,  489,  610,  609
 485,  489,  490,  611,  610
 486,  490,  491,  612,  611
 487,  491,  492,  613,  612
 488,  492,  493,  614,  613
 489,  493,  494,  615,  614
 490,  494,  495,  616,  615
 491,  495,  496,  617,  616
 492,  496,  497,  618,  617
 493,  497,  498,  619,  618
 494,  498,  499,  620,  619
 495,  499,  500,  621,  620
 496,  500,  501,  622,  621
 497,  501,  502,  623,  622
 498,  502,  503,  624,  623
 499,  503,  504,  625,  624
 500,  504,  505,  626,  625
 501,  505,  506,  627,  626
 502,  506,  507,  628,  627
 503,  507,  508,  629,  628
 504,  508,  509,  630,  629
 505,  509,  510,  631,  630
 506,  510,  511,  632,  631
 507,  511,  512,  633,  632
 508,  512,  513,  634,  633
 509,  513,  514,  635,  634
 510,  514,  515,  636,  635
 511,  515,  516,  637,  636
 512,  516,  517,  638,  637
 513,  517,  518,  639,  638
 514,  518,  519,  640,  639
 515,  519,  520,  641,  640
 516,  520,  521,  642,  641
 517,  521,  522,  643,  642
 518,  522,  523,  644,  643
 519,  523,  524,  645,  644
 520,  524,  525,  646,  645
 521,  525,  526,  647,  646
 522,  526,  527,  648,  647
 523,  527,  528,  649,  648
 524,  528,  529,  650,  649
 525,  529,  530,  651,  650
 526,  530,  531,  652,  651
 527,  531,  532,  653,  652
 528,  532,  533,  654,  653
 529,  533,  534,  655,  654
 530,  534,  535,  656,  655
 531,  535,  536,  657,  656
 532,  536,  537,  658,  657
 533,  537,  538,  659,  658
 534,  538,  539,  660,  659
 535,  539,  540,  661,  660
 536,  540,  541,  662,  661
 537,  541,  542,  663,  662
 538,  542,  543,  664,  663
 539,  543,  544,  665,  664
 540,  544,  545,  666,  665
 541,  545,  546,  667,  666
 542,  546,  547,  668,  667
 543,  547,  548,  669,  668
 544,  548,  549,  670,  669
 545,  549,  550,  671,  670
 546,  550,  551,  672,  671
 547,  551,  552,  673,  672
 548,  552,  553,  674,  673
 549,  553,  554,  675,  674
 550,  554,  555,  676,  675
 551,  555,  556,  677,  676
 552,  556,  557,  678,  677
 553,  557,  558,  679,  678
 554,  558,  559,  680,  679
 555,  559,  560,  681,  680
 556,  560,  561,  682,  681
 557,  561,  562,  683,  682
 558,  562,  563,  684,  683
 559,  563,  564,  685,  684
 560,  564,  565,  686,  685
 561,  565,  566,  687,  686
 562,  566,  567,  688,  687
 563,  567,  568,  689,  688
 564,  568,  569,  690,  689
 565,  569,  570,  691,  690
 566,  570,  571,  692,  691
 567,  571,  572,  693,  692
 568,  572,  573,  694,  693
 569,  573,  574,  695,  694
 570,  574,  575,  696,  695
 571,  575,  576,  697,  696
 572,  576,  577,  698,  697
 573,  577,  578,  699,  698
 574,  578,  579,  700,  699
 575,  579,  580,  701,  700
 576,  580,  581,  702,  701
 577,  581,  582,  703,  702
 578,  582,  583,  704,  703
 579,  583,  584,  705,  704
 580,  584,  585,  706,  705
 581,  585,  586,  707,  706
 582,  586,  587,  708,  707
 583,  587,  588,  709,  708
 584,  588,  589,  710,  709
 585,  589,  590,  711,  710
 586,  590,  591,  712,  711
 587,  591,  592,  713,  712
 588,  592,  593,  714,  713
 589,  593,  594,  715,  714
 590,  594,  595,  716,  715
 591,  595,  596,  717,  716
 592,  596,  597,  718,  717
 593,  597,  598,  719,  718
 594,  598,  599,  720,  719
 595,  599,  600,  721,  720
 596,  600,  601,  722,  721
 597,  601,  602,  723,  722
 598,  602,  603,  724,  723
 599,  603,  604,  725,  724
 600,  604,  605,  726,  725
 601,  606,  607,  728,  727
 602,  607,  608,  729,  728
 603,  608,  609,  730,  729
 604,  609,  610,  731,  730
 605,  610,  611,  732,  731
 606,  611,  612,  733,  732
 607,  612,  613,  734,  733
 608,  613,  614,  735,  734
 609,  614,  615,  736,  735
 610,  615,  616,  737,  736
 611,  616,  617,  738,  737
 612,  617,  618,  739,  738
 613,  618,  619,  740,  739
 614,  619,  620,  741,  740
 615,  620,  621,  742,  741
 616,  621,  622,  743,  742
 617,  622,  623,  744,  743
 618,  623,  624,  745,  744
 619,  624,  625,  746,  745
 620,  625,  626,  747,  746
 621,  626,  627,  748,  747
 622,  627,  628,  749,  748
 623,  628,  629,  750,  749
 624,  629,  630,  751,  750
 625,  630,  631,  752,  751
 626,  631,  632,  753,  752
 627,  632,  633,  754,  753
 628,  633,  634,  755,  754
 629,  634,  635,  756,  755
 630,  635,  636,  757,  756
 631,  636,  637,  758,  757
 632,  637,  638,  759,  758
 633,  638,  639,  760,  759
 634,  639,  640,  761,  760
 635,  640,  641,  762,  761
 636,  641,  642,  763,  762
 637,  642,  643,  764,  763
 638,  643,  644,  765,  764
 639,  644,  645,  766,  765
 640,  645,  646,  767,  766
 641,  646,  647,  768,  767
 642,  647,  648,  769,  768
 643,  648,  649,  770,  769
 644,  649,  650,  771,  770
 645,  650,  651,  772,  771
 646,  651,  652,  773,  772
 647,  652,  653,  774,  773
 648,  653,  654,  775,  774
 649,  654,  655,  776,  775
 650,  655,  656,  777,  776
 651,  656,  657,  778,  777
 652,  657,  658,  779,  778
 653,  658,  659,  780,  779
 654,  659,  660,  781,  780
 655,  660,  661,  782,  781
 656,  661,  662,  783,  782
 657,  662,  663,  784,  783
 658,  663,  664,  785,  784
 659,  664,  665,  786,  785
 660,  665,  666,  787,  786
 661,  666,  667,  788,  787
 662,  667,  668,  789,  788
 663,  668,  669,  790,  789
 664,  669,  670,  791,  790
 665,  670,  671,  792,  791
 666,  671,  672,  793,  792
 667,  672,  673,  794,  793
 668,  673,  674,  795,  794
 669,  674,  675,  796,  795
 670,  675,  676,  797,  796
 671,  676,  677,  798,  797
 672,  677,  678,  799,  798
 673,  678,  679,  800,  799
 674,  679,  680,  801,  800
 675,  680,  681,  802,  801
 676,  681,  682,  803,  802
 677,  682,  683,  804,  803
 678,  683,  684,  805,  804
 679,  684,  685,  806,  805
 680,  685,  686,  807,  806
 681,  686,  687,  808,  807
 682,  687,  688,  809,  808
 683,  688,  689,  810,  809
 684,  689,  690,  811,  810
 685,  690,  691,  812,  811
 686,  691,  692,  813,  812
 687,  692,  693,  814,  813
 688,  693,  694,  815,  814
 689,  694,  695,  816,  815
 690,  695,  696,  817,  816
 691,  696,  697,  818,  817
 692,  697,  698,  819,  818
 693,  698,  699,  820,  819
 694,  699,  700,  821,  820
 695,  700,  701,  822,  821
 696,  701,  702,  823,  822
 697,  702,  703,  824,  823
 698,  703,  704,  825,  824
 699,  704,  705,  826,  825
 700,  705,  706,  827,  826
 701,  706,  707,  828,  827
 702,  707,  708,  829,  828
 703,  708,  709,  830,  829
 704,  709,  710,  831,  830
 705,  710,  711,  832,  831
 706,  711,  712,  833,  832
 707,  712,  713,  834,  833
 708,  713,  714,  835,  834
 709,  714,  715,  836,  835
 710,  715,  716,  837,  836
 711,  716,  717,  838,  837
 712,  717,  718,  839,  838
 713,  718,  719,  840,  839
 714,  719,  720,  841,  840
 715,  720,  721,  842,  841
 716,  721,  722,  843,  842
 717,  722,  723,  844,  843
 718,  723,  724,  845,  844
 719,  724,  725,  846,  845
 720,  725,  726,  847,  846
 721,  727,  728,  849,  848
 722,  728,  729,  850,  849
 723,  729,  730,  851,  850
 724,  730,  731,  852,  851
 725,  731,  732,  853,  852
 726,  732,  733,  854,  853
 727,  733,  734,  855,  854
 728,  734,  735,  856,  855
 729,  735,  736,  857,  856
 730,  736,  737,  858,  857
 731,  737,  738,  859,  858
 732,  738,  739,  860,  859
 733,  739,  740,  861,  860
 734,  740,  741,  862,  861
 735,  741,  742,  863,  862
 736,  742,  743,  864,  863
 737,  743,  744,  865,  864
 738,  744,  745,  866,  865
 739,  745,  746,  867,  866
 740,  746,  747,  868,  867
 741,  747,  748,  869,  868
 742,  748,  749,  870,  869
 743,  749,  750,  871,  870
 744,  750,  751,  872,  871
 745,  751,  752,  873,  872
 746,  752,  753,  874,  873
 747,  753,  754,  875,  874
 748,  754,  755,  876,  875
 749,  755,  756,  877,  876
 750,  756,  757,  878,  877
 751,  757,  758,  879,  878
 752,  758,  759,  880,  879
 753,  759,  760,  881,  880
 754,  760,  761,  882,  881
 755,  761,  762,  883,  882
 756,  762,  763,  884,  883
 757,  763,  764,  885,  884
 758,  764,  765,  886,  885
 759,  765,  766,  887,  886
 760,  766,  767,  888,  887
 761,  767,  768,  889,  888
 762,  768,  769,  890,  889
 763,  769,  770,  891,  890
 764,  770,  771,  892,  891
 765,  771,  772,  893,  892
 766,  772,  773,  894,  893
 767,  773,  774,  895,  894
 768,  774,  775,  896,  895
 769,  775,  776,  897,  896
 770,  776,  777,  898,  897
 771,  777,  778,  899,  898
 772,  778,  779,  900,  899
 773,  779,  780,  901,  900
 774,  780,  781,  902,  901
 775,  781,  782,  903,  902
 776,  782,  783,  904,  903
 777,  783,  784,  905,  904
 778,  784,  785,  906,  905
 779,  785,  786,  907,  906
 780,  786,  787,  908,  907
 781,  787,  788,  909,  908
 782,  788,  789,  910,  909
 783,  789,  790,  911,  910
 784,  790,  791,  912,  911
 785,  791,  792,  913,  912
 786,  792,  793,  914,  913
 787,  793,  794,  915,  914
 788,  794,  795,  916,  915
 789,  795,  796,  917,  916
 790,  796,  797,  918,  917
 791,  797,  798,  919,  918
 792,  798,  799,  920,  919
 793,  799,  800,  921,  920
 794,  800,  801,  922,  921
 795,  801,  802,  923,  922
 796,  802,  803,  924,  923
 797,  803,  804,  925,  924
 798,  804,  805,  926,  925
 799,  805,  806,  927,  926
 800,  806,  807,  928,  927
 801,  807,  808,  929,  928
 802,  808,  809,  930,  929
 803,  809,  810,  931,  930
 804,  810,  811,  932,  931
 805,  811,  812,  933,  932
 806,  812,  813,  934,  933
 807,  813,  814,  935,  934
 808,  814,  815,  936,  935
 809,  815,  816,  937,  936
 810,  816,  817,  938,  937
 811,  817,  818,  939,  938
 812,  818,  819,  940,  939
 813,  819,  820,  941,  940
 814,  820,  821,  942,  941
 815,  821,  822,  943,  942
 816,  822,  823,  944,  943
 817,  823,  824,  945,  944
 818,  824,  825,  946,  945
 819,  825,  826,  947,  946
 820,  826,  827,  948,  947
 821,  827,  828,  949,  948
 822,  828,  829,  950,  949
 823,  829,  830,  951,  950
 824,  830,  831,  952,  951
 825,  831,  832,  953,  952
 826,  832,  833,  954,  953
 827,  833,  834,  955,  954
 828,  834,  835,  956,  955
 829,  835,  836,  957,  956
 830,  836,  837,  958,  957
 831,  837,  838,  959,  958
 832,  838,  839,  960,  959
 833,  839,  840,  961,  960
 834,  840,  841,  962,  961
 835,  841,  842,  963,  962
 836,  842,  843,  964,  963
 837,  843,  844,  965,  964
 838,  844,  845,  966,  965
 839,  845,  846,  967,  966
 840,  846,  847,  968,  967
 841,  848,  849,  970,  969
 842,  849,  850,  971,  970
 843,  850,  851,  972,  971
 844,  851,  852,  973,  972
 845,  852,  853,  974,  973
 846,  853,  854,  975,  974
 847,  854,  855,  976,  975
 848,  855,  856,  977,  976
 849,  856,  857,  978,  977
 850,  857,  858,  979,  978
 851,  858,  859,  980,  979
 852,  859,  860,  981,  980
 853,  860,  861,  982,  981
 854,  861,  862,  983,  982
 855,  862,  863,  984,  983
 856,  863,  864,  985,  984
 857,  864,  865,  986,  985
 858,  865,  866,  987,  986
 859,  866,  867,  988,  987
 860,  867,  868,  989,  988
 861,  868,  869,  990,  989
 862,  869,  870,  991,  990
 863,  870,  871,  992,  991
 864,  871,  872,  993,  992
 865,  872,  873,  994,  993
 866,  873,  874,  995,  994
 867,  874,  875,  996,  995
 868,  875,  876,  997,  996
 869,  876,  877,  998,  997
 870,  877,  878,  999,  998
 871,  878,  879, 1000,  999
 872,  879,  880, 1001, 1000
 873,  880,  881, 1002, 1001
 874,  881,  882, 1003, 1002
 875,  882,  883, 1004, 1003
 876,  883,  884, 1005, 1004
 877,  884,  885, 1006, 1005
 878,  885,  886, 1007, 1006
 879,  886,  887, 1008, 1007
 880,  887,  888, 1009, 1008
 881,  888,  889, 1010, 1009
 882,  889,  890, 1011, 1010
 883,  890,  891, 1012, 1011
 884,  891,  892, 1013, 1012
 885,  892,  893, 1014, 1013
 886,  893,  894, 1015, 1014
 887,  894,  895, 1016, 1015
 888,  895,  896, 1017, 1016
 889,  896,  897, 1018, 1017
 890,  897,  898, 1019, 1018
 891,  898,  899, 1020, 1019
 892,  899,  900, 1021, 1020
 893,  900,  901, 1022, 1021
 894,  901,  902, 1023, 1022
 895,  902,  903, 1024, 1023
 896,  903,  904, 1025, 1024
 897,  904,  905, 1026, 1025
 898,  905,  906, 1027, 1026
 899,  906,  907, 1028, 1027
 900,  907,  908, 1029, 1028
 901,  908,  909, 1030, 1029
 902,  909,  910, 1031, 1030
 903,  910,  911, 1032, 1031
 904,  911,  912, 1033, 1032
 905,  912,  913, 1034, 1033
 906,  913,  914, 1035, 1034
 907,  914,  915, 1036, 1035
 908,  915,  916, 1037, 1036
 909,  916,  917, 1038, 1037
 910,  917,  918, 1039, 1038
 911,  918,  919, 1040, 1039
 912,  919,  920, 1041, 1040
 913,  920,  921, 1042, 1041
 914,  921,  922, 1043, 1042
 915,  922,  923, 1044, 1043
 916,  923,  924, 1045, 1044
 917,  924,  925, 1046, 1045
 918,  925,  926, 1047, 1046
 919,  926,  927, 1048, 1047
 920,  927,  928, 1049, 1048
 921,  928,  929, 1050, 1049
 922,  929,  930, 1051, 1050
 923,  930,  931, 1052, 1051
 924,  931,  932, 1053, 1052
 925,  932,  933, 1054, 1053
 926,  933,  934, 1055, 1054
 927,  934,  935, 1056, 1055
 928,  935,  936, 1057, 1056
 929,  936,  937, 1058, 1057
 930,  937,  938, 1059, 1058
 931,  938,  939, 1060, 1059
 932,  939,  940, 1061, 1060
 933,  940,  941, 1062, 1061
 934,  941,  942, 1063, 1062
 935,  942,  943, 1064, 1063
 936,  943,  944, 1065, 1064
 937,  944,  945, 1066, 1065
 938,  945,  946, 1067, 1066
 939,  946,  947, 1068, 1067
 940,  947,  948, 1069, 1068
 941,  948,  949, 1070, 1069
 942,  949,  950, 1071, 1070
 943,  950,  951, 1072, 1071
 944,  951,  952, 1073, 1072
 945,  952,  953, 1074, 1073
 946,  953,  954, 1075, 1074
 947,  954,  955, 1076, 1075
 948,  955,  956, 1077, 1076
 949,  956,  957, 1078, 1077
 950,  957,  958, 1079, 1078
 951,  958,  959, 1080, 1079
 952,  959,  960, 1081, 1080
 953,  960,  961, 1082, 1081
 954,  961,  962, 1083, 1082
 955,  962,  963, 1084, 1083
 956,  963,  964, 1085, 1084
 957,  964,  965, 1086, 1085
 958,  965,  966, 1087, 1086
 959,  966,  967, 1088, 1087
 960,  967,  968, 1089, 1088
 961,  969,  970, 1091, 1090
 962,  970,  971, 1092, 1091
 963,  971,  972, 1093, 1092
 964,  972,  973, 1094, 1093
 965,  973,  974, 1095, 1094
 966,  974,  975, 1096, 1095
 967,  975,  976, 1097, 1096
 968,  976,  977, 1098, 1097
 969,  977,  978, 1099, 1098
 970,  978,  979, 1100, 1099
 971,  979,  980, 1101, 1100
 972,  980,  981, 1102, 1101
 973,  981,  982, 1103, 1102
 974,  982,  983, 1104, 1103
 975,  983,  984, 1105, 1104
 976,  984,  985, 1106, 1105
 977,  985,  986, 1107, 1106
 978,  986,  987, 1108, 1107
 979,  987,  988, 1109, 1108
 980,  988,  989, 1110, 1109
 981,  989,  990, 1111, 1110
 982,  990,  991, 1112, 1111
 983,  991,  992, 1113, 1112
 984,  992,  993, 1114, 1113
 985,  993,  994, 1115, 1114
 986,  994,  995, 1116, 1115
 987,  995,  996, 1117, 1116
 988,  996,  997, 1118, 1117
 989,  997,  998, 1119, 1118
 990,  998,  999, 1120, 1119
 991,  999, 1000, 1121, 1120
 992, 1000, 1001, 1122, 1121
 993, 1001, 1002, 1123, 1122
 994, 1002, 1003, 1124, 1123
 995, 1003, 1004, 1125, 1124
 996, 1004, 1005, 1126, 1125
 997, 1005, 1006, 1127, 1126
 998, 1006, 1007, 1128, 1127
 999, 1007, 1008, 1129, 1128
1000, 1008, 1009, 1130, 1129
1001, 1009, 1010, 1131, 1130
1002, 1010, 1011, 1132, 1131
1003, 1011, 1012, 1133, 1132
1004, 1012, 1013, 1134, 1133
1005, 1013, 1014, 1135, 1134
1006, 1014, 1015, 1136, 1135
1007, 1015, 1016, 1137, 1136
1008, 1016, 1017, 1138, 1137
1009, 1017, 1018, 1139, 1138
1010, 1018, 1019, 1140, 1139
1011, 1019, 1020, 1141, 1140
1012, 1020, 1021, 1142, 1141
1013, 1021, 1022, 1143, 1142
1014, 1022, 1023, 1144, 1143
1015, 1023, 1024, 1145, 1144
1016, 1024, 1025, 1146, 1145
1017, 1025, 1026, 1147, 1146
1018, 1026, 1027, 1148, 1147
1019, 1027, 1028, 1149, 1148
1020, 1028, 1029, 1150, 1149
1021, 1029, 1030, 1151, 1150
1022, 1030, 1031, 1152, 1151
1023, 1031, 1032, 1153, 1152
1024, 1032, 1033, 1154, 1153
1025, 1033, 1034, 1155, 1154
1026, 1034, 1035, 1156, 1155
1027, 1035, 1036, 1157, 1156
1028, 1036, 1037, 1158, 1157
1029, 1037, 1038, 1159, 1158
1030, 1038, 1039, 1160, 1159
1031, 1039, 1040, 1161, 1160
1032, 1040, 1041, 1162, 1161
1033, 1041, 1042, 1163, 1162
1034, 1042, 1043, 1164, 1163
1035, 1043, 1044, 1165, 1164
1036, 1044, 1045, 1166, 1165
1037, 1045, 1046, 1167, 1166
1038, 1046, 1047, 1168, 1167
1039, 1047, 1048, 1169, 1168
1040, 1048, 1049, 1170, 1169
1041, 1049, 1050, 1171, 1170
1042, 1050, 1051, 1172, 1171
1043, 1051, 1052, 1173, 1172
1044, 1052, 1053, 1174, 1173
1045, 1053, 1054, 1175, 1174
1046, 1054, 1055, 1176, 1175
1047, 1055, 1056, 1177, 1176
1048, 1056, 1057, 1178, 1177
1049, 1057, 1058, 1179, 1178
1050, 1058, 1059, 1180, 1179
1051, 1059, 1060, 1181, 1180
1052, 1060, 1061, 1182, 1181
1053, 1061, 1062, 1183, 1182
1054, 1062, 1063, 1184, 1183
1055, 1063, 1064, 1185, 1184
1056, 1064, 1065, 1186, 1185
1057, 1065, 1066, 1187, 1186
1058, 1066, 1067, 1188, 1187
1059, 1067, 1068, 1189, 1188
1060, 1068, 1069, 1190, 1189
1061, 1069, 1070, 1191, 1190
1062, 1070, 1071, 1192, 1191
1063, 1071, 1072, 1193, 1192
1064, 1072, 1073, 1194, 1193
1065, 1073, 1074, 1195, 1194
1066, 1074, 1075, 1196, 1195
1067, 1075, 1076, 1197, 1196
1068, 1076, 1077, 1198, 1197
1069, 1077, 1078, 1199, 1198
1070, 1078, 1079, 1200, 1199
1071, 1079, 1080, 1201, 1200
1072, 1080, 1081, 1202, 1201
1073, 1081, 1082, 1203, 1202
1074, 1082, 1083, 1204, 1203
1075, 1083, 1084, 1205, 1204
1076, 1084, 1085, 1206, 1205
1077, 1085, 1086, 1207, 1206
1078, 1086, 1087, 1208, 1207
1079, 1087, 1088, 1209, 1208
1080, 1088, 1089, 1210, 1209
1081, 1090, 1091, 1212, 1211
1082, 1091, 1092, 1213, 1212
1083, 1092, 1093, 1214, 1213
1084, 1093, 1094, 1215, 1214
1085, 1094, 1095, 1216, 1215
1086, 1095, 1096, 1217, 1216
1087, 1096, 1097, 1218, 1217
1088, 1097, 1098, 1219, 1218
1089, 1098, 1099, 1220, 1219
1090, 1099, 1100, 1221, 1220
1091, 1100, 1101, 1222, 1221
1092, 1101, 1102, 1223, 1222
1093, 1102, 1103, 1224, 1223
1094, 1103, 1104, 1225, 1224
1095, 1104, 1105, 1226, 1225
1096, 1105, 1106, 1227, 1226
1097, 1106, 1107, 1228, 1227
1098, 1107, 1108, 1229, 1228
1099, 1108, 1109, 1230, 1229
1100, 1109, 1110, 1231, 1230
1101, 1110, 1111, 1232, 1231
1102, 1111, 1112, 1233, 1232
1103, 1112, 1113, 1234, 1233
1104, 1113, 1114, 1235, 1234
1105, 1114, 1115, 1236, 1235
1106, 1115, 1116, 1237, 1236
1107, 1116, 1117, 1238, 1237
1108, 1117, 1118, 1239, 1238
1109, 1118, 1119, 1240, 1239
1110, 1119, 1120, 1241, 1240
1111, 1120, 1121, 1242, 1241
1112, 1121, 1122, 1243, 1242
1113, 1122, 1123, 1244, 1243
1114, 1123, 1124, 1245, 1244
1115, 1124, 1125, 1246, 1245
1116, 1125, 1126, 1247, 1246
1117, 1126, 1127, 1248, 1247
1118, 1127, 1128, 1249, 1248
1119, 1128, 1129, 1250, 1249
1120, 1129, 1130, 1251, 1250
1121, 1130, 1131, 1252, 1251
1122, 1131, 1132, 1253, 1252
1123, 1132, 1133, 1254, 1253
1124, 1133, 1134, 1255, 1254
1125, 1134, 1135, 1256, 1255
1126, 1135, 1136, 1257, 1256
1127, 1136, 1137, 1258, 1257
1128, 1137, 1138, 1259, 1258
1129, 1138, 1139, 1260, 1259
1130, 1139, 1140, 1261, 1260
1131, 1140, 1141, 1262, 1261
1132, 1141, 1142, 1263, 1262
1133, 1142, 1143, 1264, 1263
1134, 1143, 1144, 1265, 1264
1135, 1144, 1145, 1266, 1265
1136, 1145, 1146, 1267, 1266
1137, 1146, 1147, 1268, 1267
1138, 1147, 1148, 1269, 1268
1139, 1148, 1149, 1270, 1269
1140, 1149, 1150, 1271, 1270
1141, 1150, 1151, 1272, 1271
1142, 1151, 1152, 1273, 1272
1143, 1152, 1153, 1274, 1273
1144, 1153, 1154, 1275, 1274
1145, 1154, 1155, 1276, 1275
1146, 1155, 1156, 1277, 1276
1147, 1156, 1157, 1278, 1277
1148, 1157, 1158, 1279, 1278
1149, 1158, 1159, 1280, 1279
1150, 1159, 1160, 1281, 1280
1151, 1160, 1161, 1282, 1281
1152, 1161, 1162, 1283, 1282
1153, 1162, 1163, 1284, 1283
1154, 1163, 1164, 1285, 1284
1155, 1164, 1165, 1286, 1285
1156, 1165, 1166, 1287, 1286
1157, 1166, 1167, 1288, 1287
1158, 1167, 1168, 1289, 1288
1159, 1168, 1169, 1290, 1289
1160, 1169, 1170, 1291, 1290
1161, 1170, 1171, 1292, 1291
1162, 1171, 1172, 1293, 1292
1163, 1172, 1173, 1294, 1293
1164, 1173, 1174, 1295, 1294
1165, 1174, 1175, 1296, 1295
1166, 1175, 1176, 1297, 1296
1167, 1176, 1177, 1298, 1297
1168, 1177, 1178, 1299, 1298
1169, 1178, 1179, 1300, 1299
1170, 1179, 1180, 1301, 1300
1171, 1180, 1181, 1302, 1301
1172, 1181, 1182, 1303, 1302
1173, 1182, 1183, 1304, 1303
1174, 1183, 1184, 1305, 1304
1175, 1184, 1185, 1306, 1305
1176, 1185, 1186, 1307, 1306
1177, 1186, 1187, 1308, 1307
1178, 1187, 1188, 1309, 1308
1179, 1188, 1189, 1310, 1309
1180, 1189, 1190, 1311, 1310
1181, 1190, 1191, 1312, 1311
1182, 1191, 1192, 1313, 1312
1183, 1192, 1193, 1314, 1313
1184, 1193, 1194, 1315, 1314
1185, 1194, 1195, 1316, 1315
1186, 1195, 1196, 1317, 1316
1187, 1196, 1197, 1318, 1317
1188, 1197, 1198, 1319, 1318
1189, 1198, 1199, 1320, 1319
1190, 1199, 1200, 1321, 1320
1191, 1200, 1201, 1322, 1321
1192, 1201, 1202, 1323, 1322
1193, 1202, 1203, 1324, 1323
1194, 1203, 1204, 1325, 1324
1195, 1204, 1205, 1326, 1325
1196, 1205, 1206, 1327, 1326
1197, 1206, 1207, 1328, 1327
1198, 1207, 1208, 1329, 1328
1199, 1208, 1209, 1330, 1329
1200, 1209, 1210, 1331, 1330
1201, 1211, 1212, 1333, 1332
1202, 1212, 1213, 1334, 1333
1203, 1213, 1214, 1335, 1334
1204, 1214, 1215, 1336, 1335
1205, 1215, 1216, 1337, 1336
1206, 1216, 1217, 1338, 1337
1207, 1217, 1218, 1339, 1338
1208, 1218, 1219, 1340, 1339
1209, 1219, 1220, 1341, 1340
1210, 1220, 1221, 1342, 1341
1211, 1221, 1222, 1343, 1342
1212, 1222, 1223, 1344, 1343
1213, 1223, 1224, 1345, 1344
1214, 1224, 1225, 1346, 1345
1215, 1225, 1226, 1347, 1346
1216, 1226, 1227, 1348, 1347
1217, 1227, 1228, 1349, 1348
1218, 1228, 1229, 1350, 1349
1219, 1229, 1230, 1351, 1350
1220, 1230, 1231, 1352, 1351
1221, 1231, 1232, 1353, 1352
1222, 1232, 1233, 1354, 1353
1223, 1233, 1234, 1355, 1354
1224, 1234, 1235, 1356, 1355
1225, 1235, 1236, 1357, 1356
1226, 1236, 1237, 1358, 1357
1227, 1237, 1238, 1359, 1358
1228, 1238, 1239, 1360, 1359
1229, 1239, 1240, 1361, 1360
1230, 1240, 1241, 1362, 1361
1231, 1241, 1242, 1363, 1362
1232, 1242, 1243, 1364, 1363
1233, 1243, 1244, 1365, 1364
1234, 1244, 1245, 1366, 1365
1235, 1245, 1246, 1367, 1366
1236, 1246, 1247, 1368, 1367
1237, 1247, 1248, 1369, 1368
1238, 1248, 1249, 1370, 1369
1239, 1249, 1250, 1371, 1370
1240, 1250, 1251, 1372, 1371
1241, 1251, 1252, 1373, 1372
1242, 1252, 1253, 1374, 1373
1243, 1253, 1254, 1375, 1374
1244, 1254, 1255, 1376, 1375
1245, 1255, 1256, 1377, 1376
1246, 1256, 1257, 1378, 1377
1247, 1257, 1258, 1379, 1378
1248, 1258, 1259, 1380, 1379
1249, 1259, 1260, 1381, 1380
1250, 1260, 1261, 1382, 1381
1251, 1261, 1262, 1383, 1382
1252, 1262, 1263, 1384, 1383
1253, 1263, 1264, 1385, 1384
1254, 1264, 1265, 1386, 1385
1255, 1265, 1266, 1387, 1386
1256, 1266, 1267, 1388, 1387
1257, 1267, 1268, 1389, 1388
1258, 1268, 1269, 1390, 1389
1259, 1269, 1270, 1391, 1390
1260, 1270, 1271, 1392, 1391
1261, 1271, 1272, 1393, 1392
1262, 1272, 1273, 1394, 1393
1263, 1273, 1274, 1395, 1394
1264, 1274, 1275, 1396, 1395
1265, 1275, 1276, 1397, 1396
1266, 1276, 1277, 1398, 1397
1267, 1277, 1278, 1399, 1398
1268, 1278, 1279, 1400, 1399
1269, 1279, 1280, 1401, 1400
1270, 1280, 1281, 1402, 1401
1271, 1281, 1282, 1403, 1402
1272, 1282, 1283, 1404, 1403
1273, 1283, 1284, 1405, 1404
1274, 1284, 1285, 1406, 1405
1275, 1285, 1286, 1407, 1406
1276, 1286, 1287, 1408, 1407
1277, 1287, 1288, 1409, 1408
1278, 1288, 1289, 1410, 1409
1279, 1289, 1290, 1411, 1410
1280, 1290, 1291, 1412, 1411
1281, 1291, 1292, 1413, 1412
1282, 1292, 1293, 1414, 1413
1283, 1293, 1294, 1415, 1414
1284, 1294, 1295, 1416, 1415
1285, 1295, 1296, 1417, 1416
1286, 1296, 1297, 1418, 1417
1287, 1297, 1298, 1419, 1418
1288, 1298, 1299, 1420, 1419
1289, 1299, 1300, 1421, 1420
1290, 1300, 1301, 1422, 1421
1291, 1301, 1302, 1423, 1422
1292, 1302, 1303, 1424, 1423
1293, 1303, 1304, 1425, 1424
1294, 1304, 1305, 1426, 1425
1295, 1305, 1306, 1427, 1426
1296, 1306, 1307, 1428, 1427
1297, 1307, 1308, 1429, 1428
1298, 1308, 1309, 1430, 1429
1299, 1309, 1310, 1431, 1430
1300, 1310, 1311, 1432, 1431
1301, 1311, 1312, 1433, 1432
1302, 1312, 1313, 1434, 1433
1303, 1313, 1314, 1435, 1434
1304, 1314, 1315, 1436, 1435
1305, 1315, 1316, 1437, 1436
1306, 1316, 1317, 1438, 1437
1307, 1317, 1318, 1439, 1438
1308, 1318, 1319, 1440, 1439
1309, 1319, 1320, 1441, 1440
1310, 1320, 1321, 1442, 1441
1311, 1321, 1322, 1443, 1442
1312, 1322, 1323, 1444, 1443
1313, 1323, 1324, 1445, 1444
1314, 1324, 1325, 1446, 1445
1315, 1325, 1326, 1447, 1446
1316, 1326, 1327, 1448, 1447
1317, 1327, 1328, 1449, 1448
1318, 1328, 1329, 1450, 1449
1319, 1329, 1330, 1451, 1450
1320, 1330, 1331, 1452, 1451
1321, 1332, 1333, 1454, 1453
1322, 1333, 1334, 1455, 1454
1323, 1334, 1335, 1456, 1455
1324, 1335, 1336, 1457, 1456
1325, 1336, 1337, 1458, 1457
1326, 1337, 1338, 1459, 1458
1327, 1338, 1339, 1460, 1459
1328, 1339, 1340, 1461, 1460
1329, 1340, 1341, 1462, 1461
1330, 1341, 1342, 1463, 1462
1331, 1342, 1343, 1464, 1463
1332, 1343, 1344, 1465, 1464
1333, 1344, 1345, 1466, 1465
1334, 1345, 1346, 1467, 1466
1335, 1346, 1347, 1468, 1467
1336, 1347, 1348, 1469, 1468
1337, 1348, 1349, 1470, 1469
1338, 1349, 1350, 1471, 1470
1339, 1350, 1351, 1472, 1471
1340, 1351, 1352, 1473, 1472
1341, 1352, 1353, 1474, 1473
1342, 1353, 1354, 1475, 1474
1343, 1354, 1355, 1476, 1475
1344, 1355, 1356, 1477, 1476
1345, 1356, 1357, 1478, 1477
1346, 1357, 1358, 1479, 1478
1347, 1358, 1359, 1480, 1479
1348, 1359, 1360, 1481, 1480
1349, 1360, 1361, 1482, 1481
1350, 1361, 1362, 1483, 1482
1351, 1362, 1363, 1484, 1483
1352, 1363, 1364, 1485, 1484
1353, 1364, 1365, 1486, 1485
1354, 1365, 1366, 1487, 1486
1355, 1366, 1367, 1488, 1487
1356, 1367, 1368, 1489, 1488
1357, 1368, 1369, 1490, 1489
1358, 1369, 1370, 1491, 1490
1359, 1370, 1371, 1492, 1491
1360, 1371, 1372, 1493, 1492
1361, 1372, 1373, 1494, 1493
1362, 1373, 1374, 1495, 1494
1363, 1374, 1375, 1496, 1495
1364, 1375, 1376, 1497, 1496
1365, 1376, 1377, 1498, 1497
1366, 1377, 1378, 1499, 1498
1367, 1378, 1379, 1500, 1499
1368, 1379, 1380, 1501, 1500
1369, 1380, 1381, 1502, 1501
1370, 1381, 1382, 1503, 1502
1371, 1382, 1383, 1504, 1503
1372, 1383, 1384, 1505, 1504
1373, 1384, 1385, 1506, 1505
1374, 1385, 1386, 1507, 1506
1375, 1386, 1387, 1508, 1507
1376, 1387, 1388, 1509, 1508
1377, 1388, 1389, 1510, 1509
1378, 1389, 1390, 1511, 1510
1379, 1390, 1391, 1512, 1511
1380, 1391, 1392, 1513, 1512
1381, 1392, 1393, 1514, 1513
1382, 1393, 1394, 1515, 1514
1383, 1394, 1395, 1516, 1515
1384, 1395, 1396, 1517, 1516
1385, 1396, 1397, 1518, 1517
1386, 1397, 1398, 1519, 1518
1387, 1398, 1399, 1520, 1519
1388, 1399, 1400, 1521, 1520
1389, 1400, 1401, 1522, 1521
1390, 1401, 1402, 1523, 1522
1391, 1402, 1403, 1524, 1523
1392, 1403, 1404, 1525, 1524
1393, 1404, 1405, 1526, 1525
1394, 1405, 1406, 1527, 1526
1395, 1406, 1407, 1528, 1527
1396, 1407, 1408, 1529, 1528
1397, 1408, 1409, 1530, 1529
1398, 1409, 1410, 1531, 1530
1399, 1410, 1411, 1532, 1531
1400, 1411, 1412, 1533, 1532
1401, 1412, 1413, 1534, 1533
1402, 1413, 1414, 1535, 1534
1403, 1414, 1415, 1536, 1535
1404, 1415, 1416, 1537, 1536
1405, 1416, 1417, 1538, 1537
1406, 1417, 1418, 1539, 1538
1407, 1418, 1419, 1540, 1539
1408, 1419, 1420, 1541, 1540
1409, 1420, 1421, 1542, 1541
1410, 1421, 1422, 1543, 1542
1411, 1422, 1423, 1544, 1543
1412, 1423, 1424, 1545, 1544
1413, 1424, 1425, 1546, 1545
1414, 1425, 1426, 1547, 1546
1415, 1426, 1427, 1548, 1547
1416, 1427, 1428, 1549, 1548
1417, 1428, 1429, 1550, 1549
1418, 1429, 1430, 1551, 1550
1419, 1430, 1431, 1552, 1551
1420, 1431, 1432, 1553, 1552
1421, 1432, 1433, 1554, 1553
1422, 1433, 1434, 1555, 1554
1423, 1434, 1435, 1556, 1555
1424, 1435, 1436, 1557, 1556
1425, 1436, 1437, 1558, 1557
1426, 1437, 1438, 1559, 1558
1427, 1438, 1439, 1560, 1559
1428, 1439, 1440, 1561, 1560
1429, 1440, 1441, 1562, 1561
1430, 1441, 1442, 1563, 1562
1431, 1442, 1443, 1564, 1563
1432, 1443, 1444, 1565, 1564
1433, 1444, 1445, 1566, 1565
1434, 1445, 1446, 1567, 1566
1435, 1446, 1447, 1568, 1567
1436, 1447, 1448, 1569, 1568
1437, 1448, 1449, 1570, 1569
1438, 1449, 1450, 1571, 1570
1439, 1450, 1451, 1572, 1571
1440, 1451, 1452, 1573, 1572
1441, 1453, 1454, 1575, 1574
1442, 1454, 1455, 1576, 1575
1443, 1455, 1456, 1577, 1576
1444, 1456, 1457, 1578, 1577
1445, 1457, 1458, 1579, 1578
1446, 1458, 1459, 1580, 1579
1447, 1459, 1460, 1581, 1580
1448, 1460, 1461, 1582, 1581
1449, 1461, 1462, 1583, 1582
1450, 1462, 1463, 1584, 1583
1451, 1463, 1464, 1585, 1584
1452, 1464, 1465, 1586, 1585
1453, 1465, 1466, 1587, 1586
1454, 1466, 1467, 1588, 1587
1455, 1467, 1468, 1589, 1588
1456, 1468, 1469, 1590, 1589
1457, 1469, 1470, 1591, 1590
1458, 1470, 1471, 1592, 1591
1459, 1471, 1472, 1593, 1592
1460, 1472, 1473, 1594, 1593
1461, 1473, 1474, 1595, 1594
1462, 1474, 1475, 1596, 1595
1463, 1475, 1476, 1597, 1596
1464, 1476, 1477, 1598, 1597
1465, 1477, 1478, 1599, 1598
1466, 1478, 1479, 1600, 1599
1467, 1479, 1480, 1601, 1600
1468, 1480, 1481, 1602, 1601
1469, 1481, 1482, 1603, 1602
1470, 1482, 1483, 1604, 1603
1471, 1483, 1484, 1605, 1604
1472, 1484, 1485, 1606, 1605
1473, 1485, 1486, 1607, 1606
1474, 1486, 1487, 1608, 1607
1475, 1487, 1488, 1609, 1608
1476, 1488, 1489, 1610, 1609
1477, 1489, 1490, 1611, 1610
1478, 1490, 1491, 1612, 1611
1479, 1491, 1492, 1613, 1612
1480, 1492, 1493, 1614, 1613
1481, 1493, 1494, 1615, 1614
1482, 1494, 1495, 1616, 1615
1483, 1495, 1496, 1617, 1616
1484, 1496, 1497, 1618, 1617
1485, 1497, 1498, 1619, 1618
1486, 1498, 1499, 1620, 1619
1487, 1499, 1500, 1621, 1620
1488, 1500, 1501, 1622, 1621
1489, 1501, 1502, 1623, 1622
1490, 1502, 1503, 1624, 1623
1491, 1503, 1504, 1625, 1624
1492, 1504, 1505, 1626, 1625
1493, 1505, 1506, 1627, 1626
1494, 1506, 1507, 1628, 1627
1495, 1507, 1508, 1629, 1628
1496, 1508, 1509, 1630, 1629
1497, 1509, 1510, 1631, 1630
1498, 1510, 1511, 1632, 1631
1499, 1511, 1512, 1633, 1632
1500, 1512, 1513, 1634, 1633
1501, 1513, 1514, 1635, 1634
1502, 1514, 1515, 1636, 1635
1503, 1515, 1516, 1637, 1636
1504, 1516, 1517, 1638, 1637
1505, 1517, 1518, 1639, 1638
1506, 1518, 1519, 1640, 1639
1507, 1519, 1520, 1641, 1640
1508, 1520, 1521, 1642, 1641
1509, 1521, 1522, 1643, 1642
1510, 1522, 1523, 1644, 1643
1511, 1523, 1524, 1645, 1644
1512, 1524, 1525, 1646, 1645
1513, 1525, 1526, 1647, 1646
1514, 1526, 1527, 1648, 1647
1515, 1527, 1528, 1649, 1648
1516, 1528, 1529, 1650, 1649
1517, 1529, 1530, 1651, 1650
1518, 1530, 1531, 1652, 1651
1519, 1531, 1532, 1653, 1652
1520, 1532, 1533, 1654, 1653
1521, 1533, 1534, 1655, 1654
1522, 1534, 1535, 1656, 1655
1523, 1535, 1536, 1657, 1656
1524, 1536, 1537, 1658, 1657
1525, 1537, 1538, 1659, 1658
1526, 1538, 1539, 1660, 1659
1527, 1539, 1540, 1661, 1660
1528, 1540, 1541, 1662, 1661
1529, 1541, 1542, 1663, 1662
1530, 1542, 1543, 1664, 1663
1531, 1543, 1544, 1665, 1664
1532, 1544, 1545, 1666, 1665
1533, 1545, 1546, 1667, 1666
1534, 1546, 1547, 1668, 1667
1535, 1547, 1548, 1669, 1668
1536, 1548, 1549, 1670, 1669
1537, 1549, 1550, 1671, 1670
1538, 1550, 1551, 1672, 1671
1539, 1551, 1552, 1673, 1672
1540, 1552, 1553, 1674, 1673
1541, 1553, 1554, 1675, 1674
1542, 1554, 1555, 1676, 1675
1543, 1555, 1556, 1677, 1676
1544, 1556, 1557, 1678, 1677
1545, 1557, 1558, 1679, 1678
1546, 1558, 1559, 1680, 1679
1547, 1559, 1560, 1681, 1680
1548, 1560, 1561, 1682, 1681
1549, 1561, 1562, 1683, 1682
1550, 1562, 1563, 1684, 1683
1551, 1563, 1564, 1685, 1684
1552, 1564, 1565, 1686, 1685
1553, 1565, 1566, 1687, 1686
1554, 1566, 1567, 1688, 1687
1555, 1567, 1568, 1689, 1688
1556, 1568, 1569, 1690, 1689
1557, 1569, 1570, 1691, 1690
1558, 1570, 1571, 1692, 1691
1559, 1571, 1572, 1693, 1692
1560, 1572, 1573, 1694, 1693
1561, 1574, 1575, 1696, 1695
1562, 1575, 1576, 1697, 1696
1563, 1576, 1577, 1698, 1697
1564, 1577, 1578, 1699, 1698
1565, 1578, 1579, 1700, 1699
1566, 1579, 1580, 1701, 1700
1567, 1580, 1581, 1702, 1701
1568, 1581, 1582, 1703, 1702
1569, 1582, 1583, 1704, 1703
1570, 1583, 1584, 1705, 1704
1571, 1584, 1585, 1706, 1705
1572, 1585, 1586, 1707, 1706
1573, 1586, 1587, 1708, 1707
1574, 1587, 1588, 1709, 1708
1575, 1588, 1589, 1710, 1709
1576, 1589, 1590, 1711, 1710
1577, 1590, 1591, 1712, 1711
1578, 1591, 1592, 1713, 1712
1579, 1592, 1593, 1714, 1713
1580, 1593, 1594, 1715, 1714
1581, 1594, 1595, 1716, 1715
1582, 1595, 1596, 1717, 1716
1583, 1596, 1597, 1718, 1717
1584, 1597, 1598, 1719, 1718
1585, 1598, 1599, 1720, 1719
1586, 1599, 1600, 1721, 1720
1587, 1600, 1601, 1722, 1721
1588, 1601, 1602, 1723, 1722
1589, 1602, 1603, 1724, 1723
1590, 1603, 1604, 1725, 1724
1591, 1604, 1605, 1726, 1725
1592, 1605, 1606, 1727, 1726
1593, 1606, 1607, 1728, 1727
1594, 1607, 1608, 1729, 1728
1595, 1608, 1609, 1730, 1729
1596, 1609, 1610, 1731, 1730
1597, 1610, 1611, 1732, 1731
1598, 1611, 1612, 1733, 1732
1599, 1612, 1613, 1734, 1733
1600, 1613, 1614, 1735, 1734
1601, 1614, 1615, 1736, 1735
1602, 1615, 1616, 1737, 1736
1603, 1616, 1617, 1738, 1737
1604, 1617, 1618, 1739, 1738
1605, 1618, 1619, 1740, 1739
1606, 1619, 1620, 1741, 1740
1607, 1620, 1621, 1742, 1741
1608, 1621, 1622, 1743, 1742
1609, 1622, 1623, 1744, 1743
1610, 1623, 1624, 1745, 1744
1611, 1624, 1625, 1746, 1745
1612, 1625, 1626, 1747, 1746
1613, 1626, 1627, 1748, 1747
1614, 1627, 1628, 1749, 1748
1615, 1628, 1629, 1750, 1749
1616, 1629, 1630, 1751, 1750
1617, 1630, 1631, 1752, 1751
1618, 1631, 1632, 1753, 1752
1619, 1632, 1633, 1754, 1753
1620, 1633, 1634, 1755, 1754
1621, 1634, 1635, 1756, 1755
1622, 1635, 1636, 1757, 1756
1623, 1636, 1637, 1758, 1757
1624, 1637, 1638, 1759, 1758
1625, 1638, 1639, 1760, 1759
1626, 1639, 1640, 1761, 1760
1627, 1640, 1641, 1762, 1761
1628, 1641, 1642, 1763, 1762
1629, 1642, 1643, 1764, 1763
1630, 1643, 1644, 1765, 1764
1631, 1644, 1645, 1766, 1765
1632, 1645, 1646, 1767, 1766
1633, 1646, 1647, 1768, 1767
1634, 1647, 1648, 1769, 1768
1635, 1648, 1649, 1770, 1769
1636, 1649, 1650, 1771, 1770
1637, 1650, 1651, 1772, 1771
1638, 1651, 1652, 1773, 1772
1639, 1652, 1653, 1774, 1773
1640, 1653, 1654, 1775, 1774
1641, 1654, 1655, 1776, 1775
1642, 1655, 1656, 1777, 1776
1643, 1656, 1657, 1778, 1777
1644, 1657, 1658, 1779, 1778
1645, 1658, 1659, 1780, 1779
1646, 1659, 1660, 1781, 1780
1647, 1660, 1661, 1782, 1781
1648, 1661, 1662, 1783, 1782
1649, 1662, 1663, 1784, 1783
1650, 1663, 1664, 1785, 1784
1651, 1664, 1665, 1786, 1785
1652, 1665, 1666, 1787, 1786
1653, 1666, 1667, 1788, 1787
1654, 1667, 1668, 1789, 1788
1655, 1668, 1669, 1790, 1789
1656, 1669, 1670, 1791, 1790
1657, 1670, 1671, 1792, 1791
1658, 1671, 1672, 1793, 1792
1659, 1672, 1673, 1794, 1793
1660, 1673, 1674, 1795, 1794
1661, 1674, 1675, 1796, 1795
1662, 1675, 1676, 1797, 1796
1663, 1676, 1677, 1798, 1797
1664, 1677, 1678, 1799, 1798
1665, 1678, 1679, 1800, 1799
1666, 1679, 1680, 1801, 1800
1667, 1680, 1681, 1802, 1801
1668, 1681, 1682, 1803, 1802
1669, 1682, 1683, 1804, 1803
1670, 1683, 1684, 1805, 1804
1671, 1684, 1685, 1806, 1805
1672, 1685, 1686, 1807, 1806
1673, 1686, 1687, 1808, 1807
1674, 1687, 1688, 1809, 1808
1675, 1688, 1689, 1810, 1809
1676, 1689, 1690, 1811, 1810
1677, 1690, 1691, 1812, 1811
1678, 1691, 1692, 1813, 1812
1679, 1692, 1693, 1814, 1813
1680, 1693, 1694, 1815, 1814
1681, 1695, 1696, 1817, 1816
1682, 1696, 1697, 1818, 1817
1683, 1697, 1698, 1819, 1818
1684, 1698, 1699, 1820, 1819
1685, 1699, 1700, 1821, 1820
1686, 1700, 1701, 1822, 1821
1687, 1701, 1702, 1823, 1822
1688, 1702, 1703, 1824, 1823
1689, 1703, 1704, 1825, 1824
1690, 1704, 1705, 1826, 1825
1691, 1705, 1706, 1827, 1826
1692, 1706, 1707, 1828, 1827
1693, 1707, 1708, 1829, 1828
1694, 1708, 1709, 1830, 1829
1695, 1709, 1710, 1831, 1830
1696, 1710, 1711, 1832, 1831
1697, 1711, 1712, 1833, 1832
1698, 1712, 1713, 1834, 1833
1699, 1713, 1714, 1835, 1834
1700, 1714, 1715, 1836, 1835
1701, 1715, 1716, 1837, 1836
1702, 1716, 1717, 1838, 1837
1703, 1717, 1718, 1839, 1838
1704, 1718, 1719, 1840, 1839
1705, 1719, 1720, 1841, 1840
1706, 1720, 1721, 1842, 1841
1707, 1721, 1722, 1843, 1842
1708, 1722, 1723, 1844, 1843
1709, 1723, 1724, 1845, 1844
1710, 1724, 1725, 1846, 1845
1711, 1725, 1726, 1847, 1846
1712, 1726, 1727, 1848, 1847
1713, 1727, 1728, 1849, 1848
1714, 1728, 1729, 1850, 1849
1715, 1729, 1730, 1851, 1850
1716, 1730, 1731, 1852, 1851
1717, 1731, 1732, 1853, 1852
1718, 1732, 1733, 1854, 1853
1719, 1733, 1734, 1855, 1854
1720, 1734, 1735, 1856, 1855
1721, 1735, 1736, 1857, 1856
1722, 1736, 1737, 1858, 1857
1723, 1737, 1738, 1859, 1858
1724, 1738, 1739, 1860, 1859
1725, 1739, 1740, 1861, 1860
1726, 1740, 1741, 1862, 1861
1727, 1741, 1742, 1863, 1862
1728, 1742, 1743, 1864, 1863
1729, 1743, 1744, 1865, 1864
1730, 1744, 1745, 1866, 1865
1731, 1745, 1746, 1867, 1866
1732, 1746, 1747, 1868, 1867
1733, 1747, 1748, 1869, 1868
1734, 1748, 1749, 1870, 1869
1735, 1749, 1750, 1871, 1870
1736, 1750, 1751, 1872, 1871
1737, 1751, 1752, 1873, 1872
1738, 1752, 1753, 1874, 1873
1739, 1753, 1754, 1875, 1874
1740, 1754, 1755, 1876, 1875
1741, 1755, 1756, 1877, 1876
1742, 1756, 1757, 1878, 1877
1743, 1757, 1758, 1879, 1878
1744, 1758, 1759, 1880, 1879
1745, 1759, 1760, 1881, 1880
1746, 1760, 1761, 1882, 1881
1747, 1761, 1762, 1883, 1882
1748, 1762, 1763, 1884, 1883
1749, 1763, 1764, 1885, 1884
1750, 1764, 1765, 1886, 1885
1751, 1765, 1766, 1887, 1886
1752, 1766, 1767, 1888, 1887
1753, 1767, 1768, 1889, 1888
1754, 1768, 1769, 1890, 1889
1755, 1769, 1770, 1891, 1890
1756, 1770, 1771, 1892, 1891
1757, 1771, 1772, 1893, 1892
1758, 1772, 1773, 1894, 1893
1759, 1773, 1774, 1895, 1894
1760, 1774, 1775, 1896, 1895
1761, 1775, 1776, 1897, 1896
1762, 1776, 1777, 1898, 1897
1763, 1777, 1778, 1899, 1898
1764, 1778, 1779, 1900, 1899
1765, 1779, 1780, 1901, 1900
1766, 1780, 1781, 1902, 1901
1767, 1781, 1782, 1903, 1902
1768, 1782, 1783, 1904, 1903
1769, 1783, 1784, 1905, 1904
1770, 1784, 1785, 1906, 1905
1771, 1785, 1786, 1907, 1906
1772, 1786, 1787, 1908, 1907
1773, 1787, 1788, 1909, 1908
1774, 1788, 1789, 1910, 1909
1775, 1789, 1790, 1911, 1910
1776, 1790, 1791, 1912, 1911
1777, 1791, 1792, 1913, 1912
1778, 1792, 1793, 1914, 1913
1779, 1793, 1794, 1915, 1914
1780, 1794, 1795, 1916, 1915
1781, 1795, 1796, 1917, 1916
1782, 1796, 1797, 1918, 1917
1783, 1797, 1798, 1919, 1918
1784, 1798, 1799, 1920, 1919
1785, 1799, 1800, 1921, 1920
1786, 1800, 1801, 1922, 1921
1787, 1801, 1802, 1923, 1922
1788, 1802, 1803, 1924, 1923
1789, 1803, 1804, 1925, 1924
1790, 1804, 1805, 1926, 1925
1791, 1805, 1806, 1927, 1926
1792, 1806, 1807, 1928, 1927
1793, 1807, 1808, 1929, 1928
1794, 1808, 1809, 1930, 1929
1795, 1809, 1810, 1931, 1930
1796, 1810, 1811, 1932, 1931
1797, 1811, 1812, 1933, 1932
1798, 1812, 1813, 1934, 1933
1799, 1813, 1814, 1935, 1934
1800, 1814, 1815, 1936, 1935
1801, 1816, 1817, 1938, 1937
1802, 1817, 1818, 1939, 1938
1803, 1818, 1819, 1940, 1939
1804, 1819, 1820, 1941, 1940
1805, 1820, 1821, 1942, 1941
1806, 1821, 1822, 1943, 1942
1807, 1822, 1823, 1944, 1943
1808, 1823, 1824, 1945, 1944
1809, 1824, 1825, 1946, 1945
1810, 1825, 1826, 1947, 1946
1811, 1826, 1827, 1948, 1947
1812, 1827, 1828, 1949, 1948
1813, 1828, 1829, 1950, 1949
1814, 1829, 1830, 1951, 1950
1815, 1830, 1831, 1952, 1951
1816, 1831, 1832, 1953, 1952
1817, 1832, 1833, 1954, 1953
1818, 1833, 1834, 1955, 1954
1819, 1834, 1835, 1956, 1955
1820, 1835, 1836, 1957, 1956
1821, 1836, 1837, 1958, 1957
1822, 1837, 1838, 1959, 1958
1823, 1838, 1839, 1960, 1959
1824, 1839, 1840, 1961, 1960
1825, 1840, 1841, 1962, 1961
1826, 1841, 1842, 1963, 1962
1827, 1842, 1843, 1964, 1963
1828, 1843, 1844, 1965, 1964
1829, 1844, 1845, 1966, 1965
1830, 1845, 1846, 1967, 1966
1831, 1846, 1847, 1968, 1967
1832, 1847, 1848, 1969, 1968
1833, 1848, 1849, 1970, 1969
1834, 1849, 1850, 1971, 1970
1835, 1850, 1851, 1972, 1971
1836, 1851, 1852, 1973, 1972
1837, 1852, 1853, 1974, 1973
1838, 1853, 1854, 1975, 1974
1839, 1854, 1855, 1976, 1975
1840, 1855, 1856, 1977, 1976
1841, 1856, 1857, 1978, 1977
1842, 1857, 1858, 1979, 1978
1843, 1858, 1859, 1980, 1979
1844, 1859, 1860, 1981, 1980
1845, 1860, 1861, 1982, 1981
1846, 1861, 1862, 1983, 1982
1847, 1862, 1863, 1984, 1983
1848, 1863, 1864, 1985, 1984
1849, 1864, 1865, 1986, 1985
1850, 1865, 1866, 1987, 1986
1851, 1866, 1867, 1988, 1987
1852, 1867, 1868, 1989, 1988
1853, 1868, 1869, 1990, 1989
1854, 1869, 1870, 1991, 1990
1855, 1870, 1871, 1992, 1991
1856, 1871, 1872, 1993, 1992
1857, 1872, 1873, 1994, 1993
1858, 1873, 1874, 1995, 1994
1859, 1874, 1875, 1996, 1995
1860, 1875, 1876, 1997, 1996
1861, 1876, 1877, 1998, 1997
1862, 1877, 1878, 1999, 1998
1863, 1878, 1879, 2000, 1999
1864, 1879, 1880, 2001, 2000
1865, 1880, 1881, 2002, 2001
1866, 1881, 1882, 2003, 2002
1867, 1882, 1883, 2004, 2003
1868, 1883, 1884, 2005, 2004
1869, 1884, 1885, 2006, 2005
1870, 1885, 1886, 2007, 2006
1871, 1886, 1887, 2008, 2007
1872, 1887, 1888, 2009, 2008
1873, 1888, 1889, 2010, 2009
1874, 1889, 1890, 2011, 2010
1875, 1890, 1891, 2012, 2011
1876, 1891, 1892, 2013, 2012
1877, 1892, 1893, 2014, 2013
1878, 1893, 1894, 2015, 2014
1879, 1894, 1895, 2016, 2015
1880, 1895, 1896, 2017, 2016
1881, 1896, 1897, 2018, 2017
1882, 1897, 1898, 2019, 2018
1883, 1898, 1899, 2020, 2019
1884, 1899, 1900, 2021, 2020
1885, 1900, 1901, 2022, 2021
1886, 1901, 1902, 2023, 2022
1887, 1902, 1903, 2024, 2023
1888, 1903, 1904, 2025, 2024
1889, 1904, 1905, 2026, 2025
1890, 1905, 1906, 2027, 2026
1891, 1906, 1907, 2028, 2027
1892, 1907, 1908, 2029, 2028
1893, 1908, 1909, 2030, 2029
1894, 1909, 1910, 2031, 2030
1895, 1910, 1911, 2032, 2031
1896, 1911, 1912, 2033, 2032
1897, 1912, 1913, 2034, 2033
1898, 1913, 1914, 2035, 2034
1899, 1914, 1915, 2036, 2035
1900, 1915, 1916, 2037, 2036
1901, 1916, 1917, 2038, 2037
1902, 1917, 1918, 2039, 2038
1903, 1918, 1919, 2040, 2039
1904, 1919, 1920, 2041, 2040
1905, 1920, 1921, 2042, 2041
1906, 1921, 1922, 2043, 2042
1907, 1922, 1923, 2044, 2043
1908, 1923, 1924, 2045, 2044
1909, 1924, 1925, 2046, 2045
1910, 1925, 1926, 2047, 2046
1911, 1926, 1927, 2048, 2047
1912, 1927, 1928, 2049, 2048
1913, 1928, 1929, 2050, 2049
1914, 1929, 1930, 2051, 2050
1915, 1930, 1931, 2052, 2051
1916, 1931, 1932, 2053, 2052
1917, 1932, 1933, 2054, 2053
1918, 1933, 1934, 2055, 2054
1919, 1934, 1935, 2056, 2055
1920, 1935, 1936, 2057, 2056
1921, 1937, 1938, 2059, 2058
1922, 1938, 1939, 2060, 2059
1923, 1939, 1940, 2061, 2060
1924, 1940, 1941, 2062, 2061
1925, 1941, 1942, 2063, 2062
1926, 1942, 1943, 2064, 2063
1927, 1943, 1944, 2065, 2064
1928, 1944, 1945, 2066, 2065
1929, 1945, 1946, 2067, 2066
1930, 1946, 1947, 2068, 2067
1931, 1947, 1948, 2069, 2068
1932, 1948, 1949, 2070, 2069
1933, 1949, 1950, 2071, 2070
1934, 1950, 1951, 2072, 2071
1935, 1951, 1952, 2073, 2072
1936, 1952, 1953, 2074, 2073
1937, 1953, 1954, 2075, 2074
1938, 1954, 1955, 2076, 2075
1939, 1955, 1956, 2077, 2076
1940, 1956, 1957, 2078, 2077
1941, 1957, 1958, 2079, 2078
1942, 1958, 1959, 2080, 2079
1943, 1959, 1960, 2081, 2080
1944, 1960, 1961, 2082, 2081
1945, 1961, 1962, 2083, 2082
1946, 1962, 1963, 2084, 2083
1947, 1963, 1964, 2085, 2084
1948, 1964, 1965, 2086, 2085
1949, 1965, 1966, 2087, 2086
1950, 1966, 1967, 2088, 2087
1951, 1967, 1968, 2089, 2088
1952, 1968, 1969, 2090, 2089
1953, 1969, 1970, 2091, 2090
1954, 1970, 1971, 2092, 2091
1955, 1971, 1972, 2093, 2092
1956, 1972, 1973, 2094, 2093
1957, 1973, 1974, 2095, 2094
1958, 1974, 1975, 2096, 2095
1959, 1975, 1976, 2097, 2096
1960, 1976, 1977, 2098, 2097
1961, 1977, 1978, 2099, 2098
1962, 1978, 1979, 2100, 2099
1963, 1979, 1980, 2101, 2100
1964, 1980, 1981, 2102, 2101
1965, 1981, 1982, 2103, 2102
1966, 1982, 1983, 2104, 2103
1967, 1983, 1984, 2105, 2104
1968, 1984, 1985, 2106, 2105
1969, 1985, 1986, 2107, 2106
1970, 1986, 1987, 2108, 2107
1971, 1987, 1988, 2109, 2108
1972, 1988, 1989, 2110, 2109
1973, 1989, 1990, 2111, 2110
1974, 1990, 1991, 2112, 2111
1975, 1991, 1992, 2113, 2112
1976, 1992, 1993, 2114, 2113
1977, 1993, 1994, 2115, 2114
1978, 1994, 1995, 2116, 2115
1979, 1995, 1996, 2117, 2116
1980, 1996, 1997, 2118, 2117
1981, 1997, 1998, 2119, 2118
1982, 1998, 1999, 2120, 2119
1983, 1999, 2000, 2121, 2120
1984, 2000, 2001, 2122, 2121
1985, 2001, 2002, 2123, 2122
1986, 2002, 2003, 2124, 2123
1987, 2003, 2004, 2125, 2124
1988, 2004, 2005, 2126, 2125
1989, 2005, 2006, 2127, 2126
1990, 2006, 2007, 2128, 2127
1991, 2007, 2008, 2129, 2128
1992, 2008, 2009, 2130, 2129
1993, 2009, 2010, 2131, 2130
1994, 2010, 2011, 2132, 2131
1995, 2011, 2012, 2133, 2132
1996, 2012, 2013, 2134, 2133
1997, 2013, 2014, 2135, 2134
1998, 2014, 2015, 2136, 2135
1999, 2015, 2016, 2137, 2136
2000, 2016, 2017, 2138, 2137
2001, 2017, 2018, 2139, 2138
2002, 2018, 2019, 2140, 2139
2003, 2019, 2020, 2141, 2140
2004, 2020, 2021, 2142, 2141
2005, 2021, 2022, 2143, 2142
2006, 2022, 2023, 2144, 2143
2007, 2023, 2024, 2145, 2144
2008, 2024, 2025, 2146, 2145
2009, 2025, 2026, 2147, 2146
2010, 2026, 2027, 2148, 2147
2011, 2027, 2028, 2149, 2148
2012, 2028, 2029, 2150, 2149
2013, 2029, 2030, 2151, 2150
2014, 2030, 2031, 2152, 2151
2015, 2031, 2032, 2153, 2152
2016, 2032, 2033, 2154, 2153
2017, 2033, 2034, 2155, 2154
2018, 2034, 2035, 2156, 2155
2019, 2035, 2036, 2157, 2156
2020, 2036, 2037, 2158, 2157
2021, 2037, 2038, 2159, 2158
2022, 2038, 2039, 2160, 2159
2023, 2039, 2040, 2161, 2160
2024, 2040, 2041, 2162, 2161
2025, 2041, 2042, 2163, 2162
2026, 2042, 2043, 2164, 2163
2027, 2043, 2044, 2165, 2164
2028, 2044, 2045, 2166, 2165
2029, 2045, 2046, 2167, 2166
2030, 2046, 2047, 2168, 2167
2031, 2047, 2048, 2169, 2168
2032, 2048, 2049, 2170, 2169
2033, 2049, 2050, 2171, 2170
2034, 2050, 2051, 2172, 2171
2035, 2051, 2052, 2173, 2172
2036, 2052, 2053, 2174, 2173
2037, 2053, 2054, 2175, 2174
2038, 2054, 2055, 2176, 2175
2039, 2055, 2056, 2177, 2176
2040, 2056, 2057, 2178, 2177
2041, 2058, 2059, 2180, 2179
2042, 2059, 2060, 2181, 2180
2043, 2060, 2061, 2182, 2181
2044, 2061, 2062, 2183, 2182
2045, 2062, 2063, 2184, 2183
2046, 2063, 2064, 2185, 2184
2047, 2064, 2065, 2186, 2185
2048, 2065, 2066, 2187, 2186
2049, 2066, 2067, 2188, 2187
2050, 2067, 2068, 2189, 2188
2051, 2068, 2069, 2190, 2189
2052, 2069, 2070, 2191, 2190
2053, 2070, 2071, 2192, 2191
2054, 2071, 2072, 2193, 2192
2055, 2072, 2073, 2194, 2193
2056, 2073, 2074, 2195, 2194
2057, 2074, 2075, 2196, 2195
2058, 2075, 2076, 2197, 2196
2059, 2076, 2077, 2198, 2197
2060, 2077, 2078, 2199, 2198
2061, 2078, 2079, 2200, 2199
2062, 2079, 2080, 2201, 2200
2063, 2080, 2081, 2202, 2201
2064, 2081, 2082, 2203, 2202
2065, 2082, 2083, 2204, 2203
2066, 2083, 2084, 2205, 2204
2067, 2084, 2085, 2206, 2205
2068, 2085, 2086, 2207, 2206
2069, 2086, 2087, 2208, 2207
2070, 2087, 2088, 2209, 2208
2071, 2088, 2089, 2210, 2209
2072, 2089, 2090, 2211, 2210
2073, 2090, 2091, 2212, 2211
2074, 2091, 2092, 2213, 2212
2075, 2092, 2093, 2214, 2213
2076, 2093, 2094, 2215, 2214
2077, 2094, 2095, 2216, 2215
2078, 2095, 2096, 2217, 2216
2079, 2096, 2097, 2218, 2217
2080, 2097, 2098, 2219, 2218
2081, 2098, 2099, 2220, 2219
2082, 2099, 2100, 2221, 2220
2083, 2100, 2101, 2222, 2221
2084, 2101, 2102, 2223, 2222
2085, 2102, 2103, 2224, 2223
2086, 2103, 2104, 2225, 2224
2087, 2104, 2105, 2226, 2225
2088, 2105, 2106, 2227, 2226
2089, 2106, 2107, 2228, 2227
2090, 2107, 2108, 2229, 2228
2091, 2108, 2109, 2230, 2229
2092, 2109, 2110, 2231, 2230
2093, 2110, 2111, 2232, 2231
2094, 2111, 2112, 2233, 2232
2095, 2112, 2113, 2234, 2233
2096, 2113, 2114, 2235, 2234
2097, 2114, 2115, 2236, 2235
2098, 2115, 2116, 2237, 2236
2099, 2116, 2117, 2238, 2237
2100, 2117, 2118, 2239, 2238
2101, 2118, 2119, 2240, 2239
2102, 2119, 2120, 2241, 2240
2103, 2120, 2121, 2242, 2241
2104, 2121, 2122, 2243, 2242
2105, 2122, 2123, 2244, 2243
2106, 2123, 2124, 2245, 2244
2107, 2124, 2125, 2246, 2245
2108, 2125, 2126, 2247, 2246
2109, 2126, 2127, 2248, 2247
2110, 2127, 2128, 2249, 2248
2111, 2128, 2129, 2250, 2249
2112, 2129, 2130, 2251, 2250
2113, 2130, 2131, 2252, 2251
2114, 2131, 2132, 2253, 2252
2115, 2132, 2133, 2254, 2253
2116, 2133, 2134, 2255, 2254
2117, 2134, 2135, 2256, 2255
2118, 2135, 2136, 2257, 2256
2119, 2136, 2137, 2258, 2257
2120, 2137, 2138, 2259, 2258
2121, 2138, 2139, 2260, 2259
2122, 2139, 2140, 2261, 2260
2123, 2140, 2141, 2262, 2261
2124, 2141, 2142, 2263, 2262
2125, 2142, 2143, 2264, 2263
2126, 2143, 2144, 2265, 2264
2127, 2144, 2145, 2266, 2265
2128, 2145, 2146, 2267, 2266
2129, 2146, 2147, 2268, 2267
2130, 2147, 2148, 2269, 2268
2131, 2148, 2149, 2270, 2269
2132, 2149, 2150, 2271, 2270
2133, 2150, 2151, 2272, 2271
2134, 2151, 2152, 2273, 2272
2135, 2152, 2153, 2274, 2273
2136, 2153, 2154, 2275, 2274
2137, 2154, 2155, 2276, 2275
2138, 2155, 2156, 2277, 2276
2139, 2156, 2157, 2278, 2277
2140, 2157, 2158, 2279, 2278
2141, 2158, 2159, 2280, 2279
2142, 2159, 2160, 2281, 2280
2143, 2160, 2161, 2282, 2281
2144, 2161, 2162, 2283, 2282
2145, 2162, 2163, 2284, 2283
2146, 2163, 2164, 2285, 2284
2147, 2164, 2165, 2286, 2285
2148, 2165, 2166, 2287, 2286
2149, 2166, 2167, 2288, 2287
2150, 2167, 2168, 2289, 2288
2151, 2168, 2169, 2290, 2289
2152, 2169, 2170, 2291, 2290
2153, 2170, 2171, 2292, 2291
2154, 2171, 2172, 2293, 2292
2155, 2172, 2173, 2294, 2293
2156, 2173, 2174, 2295, 2294
2157, 2174, 2175, 2296, 2295
2158, 2175, 2176, 2297, 2296
2159, 2176, 2177, 2298, 2297
2160, 2177, 2178, 2299, 2298
2161, 2179, 2180, 2301, 2300
2162, 2180, 2181, 2302, 2301
2163, 2181, 2182, 2303, 2302
2164, 2182, 2183, 2304, 2303
2165, 2183, 2184, 2305, 2304
2166, 2184, 2185, 2306, 2305
2167, 2185, 2186, 2307, 2306
2168, 2186, 2187, 2308, 2307
2169, 2187, 2188, 2309, 2308
2170, 2188, 2189, 2310, 2309
2171, 2189, 2190, 2311, 2310
2172, 2190, 2191, 2312, 2311
2173, 2191, 2192, 2313, 2312
2174, 2192, 2193, 2314, 2313
2175, 2193, 2194, 2315, 2314
2176, 2194, 2195, 2316, 2315
2177, 2195, 2196, 2317, 2316
2178, 2196, 2197, 2318, 2317
2179, 2197, 2198, 2319, 2318
2180, 2198, 2199, 2320, 2319
2181, 2199, 2200, 2321, 2320
2182, 2200, 2201, 2322, 2321
2183, 2201, 2202, 2323, 2322
2184, 2202, 2203, 2324, 2323
2185, 2203, 2204, 2325, 2324
2186, 2204, 2205, 2326, 2325
2187, 2205, 2206, 2327, 2326
2188, 2206, 2207, 2328, 2327
2189, 2207, 2208, 2329, 2328
2190, 2208, 2209, 2330, 2329
2191, 2209, 2210, 2331, 2330
2192, 2210, 2211, 2332, 2331
2193, 2211, 2212, 2333, 2332
2194, 2212, 2213, 2334, 2333
2195, 2213, 2214, 2335, 2334
2196, 2214, 2215, 2336, 2335
2197, 2215, 2216, 2337, 2336
2198, 2216, 2217, 2338, 2337
2199, 2217, 2218, 2339, 2338
2200, 2218, 2219, 2340, 2339
2201, 2219, 2220, 2341, 2340
2202, 2220, 2221, 2342, 2341
2203, 2221, 2222, 2343, 2342
2204, 2222, 2223, 2344, 2343
2205, 2223, 2224, 2345, 2344
2206, 2224, 2225, 2346, 2345
2207, 2225, 2226, 2347, 2346
2208, 2226, 2227, 2348, 2347
2209, 2227, 2228, 2349, 2348
2210, 2228, 2229, 2350, 2349
2211, 2229, 2230, 2351, 2350
2212, 2230, 2231, 2352, 2351
2213, 2231, 2232, 2353, 2352
2214, 2232, 2233, 2354, 2353
2215, 2233, 2234, 2355, 2354
2216, 2234, 2235, 2356, 2355
2217, 2235, 2236, 2357, 2356
2218, 2236, 2237, 2358, 2357
2219, 2237, 2238, 2359, 2358
2220, 2238, 2239, 2360, 2359
2221, 2239, 2240, 2361, 2360
2222, 2240, 2241, 2362, 2361
2223, 2241, 2242, 2363, 2362
2224, 2242, 2243, 2364, 2363
2225, 2243, 2244, 2365, 2364
2226, 2244, 2245, 2366, 2365
2227, 2245, 2246, 2367, 2366
2228, 2246, 2247, 2368, 2367
2229, 2247, 2248, 2369, 2368
2230, 2248, 2249, 2370, 2369
2231, 2249, 2250, 2371, 2370
2232, 2250, 2251, 2372, 2371
2233, 2251, 2252, 2373, 2372
2234, 2252, 2253, 2374, 2373
2235, 2253, 2254, 2375, 2374
2236, 2254, 2255, 2376, 2375
2237, 2255, 2256, 2377, 2376
2238, 2256, 2257, 2378, 2377
2239, 2257, 2258, 2379, 2378
2240, 2258, 2259, 2380, 2379
2241, 2259, 2260, 2381, 2380
2242, 2260, 2261, 2382, 2381
2243, 2261, 2262, 2383, 2382
2244, 2262, 2263, 2384, 2383
2245, 2263, 2264, 2385, 2384
2246, 2264, 2265, 2386, 2385
2247, 2265, 2266, 2387, 2386
2248, 2266, 2267, 2388, 2387
2249, 2267, 2268, 2389, 2388
2250, 2268, 2269, 2390, 2389
2251, 2269, 2270, 2391, 2390
2252, 2270, 2271, 2392, 2391
2253, 2271, 2272, 2393, 2392
2254, 2272, 2273, 2394, 2393
2255, 2273, 2274, 2395, 2394
2256, 2274, 2275, 2396, 2395
2257, 2275, 2276, 2397, 2396
2258, 2276, 2277, 2398, 2397
2259, 2277, 2278, 2399, 2398
2260, 2278, 2279, 2400, 2399
2261, 2279, 2280, 2401, 2400
2262, 2280, 2281, 2402, 2401
2263, 2281, 2282, 2403, 2402
2264, 2282, 2283, 2404, 2403
2265, 2283, 2284, 2405, 2404
2266, 2284, 2285, 2406, 2405
2267, 2285, 2286, 2407, 2406
2268, 2286, 2287, 2408, 2407
2269, 2287, 2288, 2409, 2408
2270, 2288, 2289, 2410, 2409
2271, 2289, 2290, 2411, 2410
2272, 2290, 2291, 2412, 2411
2273, 2291, 2292, 2413, 2412
2274, 2292, 2293, 2414, 2413
2275, 2293, 2294, 2415, 2414
2276, 2294, 2295, 2416, 2415
2277, 2295, 2296, 2417, 2416
2278, 2296, 2297, 2418, 2417
2279, 2297, 2298, 2419, 2418
2280, 2298, 2299, 2420, 2419
2281, 2300, 2301, 2422, 2421
2282, 2301, 2302, 2423, 2422
2283, 2302, 2303, 2424, 2423
2284, 2303, 2304, 2425, 2424
2285, 2304, 2305, 2426, 2425
2286, 2305, 2306, 2427, 2426
2287, 2306, 2307, 2428, 2427
2288, 2307, 2308, 2429, 2428
2289, 2308, 2309, 2430, 2429
2290, 2309, 2310, 2431, 2430
2291, 2310, 2311, 2432, 2431
2292, 2311, 2312, 2433, 2432
2293, 2312, 2313, 2434, 2433
2294, 2313, 2314, 2435, 2434
2295, 2314, 2315, 2436, 2435
2296, 2315, 2316, 2437, 2436
2297, 2316, 2317, 2438, 2437
2298, 2317, 2318, 2439, 2438
2299, 2318, 2319, 2440, 2439
2300, 2319, 2320, 2441, 2440
2301, 2320, 2321, 2442, 2441
2302, 2321, 2322, 2443, 2442
2303, 2322, 2323, 2444, 2443
2304, 2323, 2324, 2445, 2444
2305, 2324, 2325, 2446, 2445
2306, 2325, 2326, 2447, 2446
2307, 2326, 2327, 2448, 2447
2308, 2327, 2328, 2449, 2448
2309, 2328, 2329, 2450, 2449
2310, 2329, 2330, 2451, 2450
2311, 2330, 2331, 2452, 2451
2312, 2331, 2332, 2453, 2452
2313, 2332, 2333, 2454, 2453
2314, 2333, 2334, 2455, 2454
2315, 2334, 2335, 2456, 2455
2316, 2335, 2336, 2457, 2456
2317, 2336, 2337, 2458, 2457
2318, 2337, 2338, 2459, 2458
2319, 2338, 2339, 2460, 2459
2320, 2339, 2340, 2461, 2460
2321, 2340, 2341, 2462, 2461
2322, 2341, 2342, 2463, 2462
2323, 2342, 2343, 2464, 2463
2324, 2343, 2344, 2465, 2464
2325, 2344, 2345, 2466, 2465
2326, 2345, 2346, 2467, 2466
2327, 2346, 2347, 2468, 2467
2328, 2347, 2348, 2469, 2468
2329, 2348, 2349, 2470, 2469
2330, 2349, 2350, 2471, 2470
2331, 2350, 2351, 2472, 2471
2332, 2351, 2352, 2473, 2472
2333, 2352, 2353, 2474, 2473
2334, 2353, 2354, 2475, 2474
2335, 2354, 2355, 2476, 2475
2336, 2355, 2356, 2477, 2476
2337, 2356, 2357, 2478, 2477
2338, 2357, 2358, 2479, 2478
2339, 2358, 2359, 2480, 2479
2340, 2359, 2360, 2481, 2480
2341, 2360, 2361, 2482, 2481
2342, 2361, 2362, 2483, 2482
2343, 2362, 2363, 2484, 2483
2344, 2363, 2364, 2485, 2484
2345, 2364, 2365, 2486, 2485
2346, 2365, 2366, 2487, 2486
2347, 2366, 2367, 2488, 2487
2348, 2367, 2368, 2489, 2488
2349, 2368, 2369, 2490, 2489
2350, 2369, 2370, 2491, 2490
2351, 2370, 2371, 2492, 2491
2352, 2371, 2372, 2493, 2492
2353, 2372, 2373, 2494, 2493
2354, 2373, 2374, 2495, 2494
2355, 2374, 2375, 2496, 2495
2356, 2375, 2376, 2497, 2496
2357, 2376, 2377, 2498, 2497
2358, 2377, 2378, 2499, 2498
2359, 2378, 2379, 2500, 2499
2360, 2379, 2380, 2501, 2500
2361, 2380, 2381, 2502, 2501
2362, 2381, 2382, 2503, 2502
2363, 2382, 2383, 2504, 2503
2364, 2383, 2384, 2505, 2504
2365, 2384, 2385, 2506, 2505
2366, 2385, 2386, 2507, 2506
2367, 2386, 2387, 2508, 2507
2368, 2387, 2388, 2509, 2508
2369, 2388, 2389, 2510, 2509
2370, 2389, 2390, 2511, 2510
2371, 2390, 2391, 2512, 2511
2372, 2391, 2392, 2513, 2512
2373, 2392, 2393, 2514, 2513
2374, 2393, 2394, 2515, 2514
2375, 2394, 2395, 2516, 2515
2376, 2395, 2396, 2517, 2516
2377, 2396, 2397, 2518, 2517
2378, 2397, 2398, 2519, 2518
2379, 2398, 2399, 2520, 2519
2380, 2399, 2400, 2521, 2520
2381, 2400, 2401, 2522, 2521
2382, 2401, 2402, 2523, 2522
2383, 2402, 2403, 2524, 2523
2384, 2403, 2404, 2525, 2524
2385, 2404, 2405, 2526, 2525
2386, 2405, 2406, 2527, 2526
2387, 2406, 2407, 2528, 2527
2388, 2407, 2408, 2529, 2528
2389, 2408, 2409, 2530, 2529
2390, 2409, 2410, 2531, 2530
2391, 2410, 2411, 2532, 2531
2392, 2411, 2412, 2533, 2532
2393, 2412, 2413, 2534, 2533
2394, 2413, 2414, 2535, 2534
2395, 2414, 2415, 2536, 2535
2396, 2415, 2416, 2537, 2536
2397, 2416, 2417, 2538, 2537
2398, 2417, 2418, 2539, 2538
2399, 2418, 2419, 2540, 2539
2400, 2419, 2420, 2541, 2540
2401, 2421, 2422, 2543, 2542
2402, 2422, 2423, 2544, 2543
2403, 2423, 2424, 2545, 2544
2404, 2424, 2425, 2546, 2545
2405, 2425, 2426, 2547, 2546
2406, 2426, 2427, 2548, 2547
2407, 2427, 2428, 2549, 2548
2408, 2428, 2429, 2550, 2549
2409, 2429, 2430, 2551, 2550
2410, 2430, 2431, 2552, 2551
2411, 2431, 2432, 2553, 2552
2412, 2432, 2433, 2554, 2553
2413, 2433, 2434, 2555, 2554
2414, 2434, 2435, 2556, 2555
2415, 2435, 2436, 2557, 2556
2416, 2436, 2437, 2558, 2557
2417, 2437, 2438, 2559, 2558
2418, 2438, 2439, 2560, 2559
2419, 2439, 2440, 2561, 2560
2420, 2440, 2441, 2562, 2561
2421, 2441, 2442, 2563, 2562
2422, 2442, 2443, 2564, 2563
2423, 2443, 2444, 2565, 2564
2424, 2444, 2445, 2566, 2565
2425, 2445, 2446, 2567, 2566
2426, 2446, 2447, 2568, 2567
2427, 2447, 2448, 2569, 2568
2428, 2448, 2449, 2570, 2569
2429, 2449, 2450, 2571, 2570
2430, 2450, 2451, 2572, 2571
2431, 2451, 2452, 2573, 2572
2432, 2452, 2453, 2574, 2573
2433, 2453, 2454, 2575, 2574
2434, 2454, 2455, 2576, 2575
2435, 2455, 2456, 2577, 2576
2436, 2456, 2457, 2578, 2577
2437, 2457, 2458, 2579, 2578
2438, 2458, 2459, 2580, 2579
2439, 2459, 2460, 2581, 2580
2440, 2460, 2461, 2582, 2581
2441, 2461, 2462, 2583, 2582
2442, 2462, 2463, 2584, 2583
2443, 2463, 2464, 2585, 2584
2444, 2464, 2465, 2586, 2585
2445, 2465, 2466, 2587, 2586
2446, 2466, 2467, 2588, 2587
2447, 2467, 2468, 2589, 2588
2448, 2468, 2469, 2590, 2589
2449, 2469, 2470, 2591, 2590
2450, 2470, 2471, 2592, 2591
2451, 2471, 2472, 2593, 2592
2452, 2472, 2473, 2594, 2593
2453, 2473, 2474, 2595, 2594
2454, 2474, 2475, 2596, 2595
2455, 2475, 2476, 2597, 2596
2456, 2476, 2477, 2598, 2597
2457, 2477, 2478, 2599, 2598
2458, 2478, 2479, 2600, 2599
2459, 2479, 2480, 2601, 2600
2460, 2480, 2481, 2602, 2601
2461, 2481, 2482, 2603, 2602
2462, 2482, 2483, 2604, 2603
2463, 2483, 2484, 2605, 2604
2464, 2484, 2485, 2606, 2605
2465, 2485, 2486, 2607, 2606
2466, 2486, 2487, 2608, 2607
2467, 2487, 2488, 2609, 2608
2468, 2488, 2489, 2610, 2609
2469, 2489, 2490, 2611, 2610
2470, 2490, 2491, 2612, 2611
2471, 2491, 2492, 2613, 2612
2472, 2492, 2493, 2614, 2613
2473, 2493, 2494, 2615, 2614
2474, 2494, 2495, 2616, 2615
2475, 2495, 2496, 2617, 2616
2476, 2496, 2497, 2618, 2617
2477, 2497, 2498, 2619, 2618
2478, 2498, 2499, 2620, 2619
2479, 2499, 2500, 2621, 2620
2480, 2500, 2501, 2622, 2621
2481, 2501, 2502, 2623, 2622
2482, 2502, 2503, 2624, 2623
2483, 2503, 2504, 2625, 2624
2484, 2504, 2505, 2626, 2625
2485, 2505, 2506, 2627, 2626
2486, 2506, 2507, 2628, 2627
2487, 2507, 2508, 2629, 2628
2488, 2508, 2509, 2630, 2629
2489, 2509, 2510, 2631, 2630
2490, 2510, 2511, 2632, 2631
2491, 2511, 2512, 2633, 2632
2492, 2512, 2513, 2634, 2633
2493, 2513, 2514, 2635, 2634
2494, 2514, 2515, 2636, 2635
2495, 2515, 2516, 2637, 2636
2496, 2516, 2517, 2638, 2637
2497, 2517, 2518, 2639, 2638
2498, 2518, 2519, 2640, 2639
2499, 2519, 2520, 2641, 2640
2500, 2520, 2521, 2642, 2641
2501, 2521, 2522, 2643, 2642
2502, 2522, 2523, 2644, 2643
2503, 2523, 2524, 2645, 2644
2504, 2524, 2525, 2646, 2645
2505, 2525, 2526, 2647, 2646
2506, 2526, 2527, 2648, 2647
2507, 2527, 2528, 2649, 2648
2508, 2528, 2529, 2650, 2649
2509, 2529, 2530, 2651, 2650
2510, 2530, 2531, 2652, 2651
2511, 2531, 2532, 2653, 2652
2512, 2532, 2533, 2654, 2653
2513, 2533, 2534, 2655, 2654
2514, 2534, 2535, 2656, 2655
2515, 2535, 2536, 2657, 2656
2516, 2536, 2537, 2658, 2657
2517, 2537, 2538, 2659, 2658
2518, 2538, 2539, 2660, 2659
2519, 2539, 2540, 2661, 2660
2520, 2540, 2541, 2662, 2661
2521, 2542, 2543, 2664, 2663
2522, 2543, 2544, 2665, 2664
2523, 2544, 2545, 2666, 2665
2524, 2545, 2546, 2667, 2666
2525, 2546, 2547, 2668, 2667
2526, 2547, 2548, 2669, 2668
2527, 2548, 2549, 2670, 2669
2528, 2549, 2550, 2671, 2670
2529, 2550, 2551, 2672, 2671
2530, 2551, 2552, 2673, 2672
2531, 2552, 2553, 2674, 2673
2532, 2553, 2554, 2675, 2674
2533, 2554, 2555, 2676, 2675
2534, 2555, 2556, 2677, 2676
2535, 2556, 2557, 2678, 2677
2536, 2557, 2558, 2679, 2678
2537, 2558, 2559, 2680, 2679
2538, 2559, 2560, 2681, 2680
2539, 2560, 2561, 2682, 2681
2540, 2561, 2562, 2683, 2682
2541, 2562, 2563, 2684, 2683
2542, 2563, 2564, 2685, 2684
2543, 2564, 2565, 2686, 2685
2544, 2565, 2566, 2687, 2686
2545, 2566, 2567, 2688, 2687
2546, 2567, 2568, 2689, 2688
2547, 2568, 2569, 2690, 2689
2548, 2569, 2570, 2691, 2690
2549, 2570, 2571, 2692, 2691
2550, 2571, 2572, 2693, 2692
2551, 2572, 2573, 2694, 2693
2552, 2573, 2574, 2695, 2694
2553, 2574, 2575, 2696, 2695
2554, 2575, 2576, 2697, 2696
2555, 2576, 2577, 2698, 2697
2556, 2577, 2578, 2699, 2698
2557, 2578, 2579, 2700, 2699
2558, 2579, 2580, 2701, 2700
2559, 2580, 2581, 2702, 2701
2560, 2581, 2582, 2703, 2702
2561, 2582, 2583, 2704, 2703
2562, 2583, 2584, 2705, 2704
2563, 2584, 2585, 2706, 2705
2564, 2585, 2586, 2707, 2706
2565, 2586, 2587, 2708, 2707
2566, 2587, 2588, 2709, 2708
2567, 2588, 2589, 2710, 2709
2568, 2589, 2590, 2711, 2710
2569, 2590, 2591, 2712, 2711
2570, 2591, 2592, 2713, 2712
2571, 2592, 2593, 2714, 2713
2572, 2593, 2594, 2715, 2714
2573, 2594, 2595, 2716, 2715
2574, 2595, 2596, 2717, 2716
2575, 2596, 2597, 2718, 2717
2576, 2597, 2598, 2719, 2718
2577, 2598, 2599, 2720, 2719
2578, 2599, 2600, 2721, 2720
2579, 2600, 2601, 2722, 2721
2580, 2601, 2602, 2723, 2722
2581, 2602, 2603, 2724, 2723
2582, 2603, 2604, 2725, 2724
2583, 2604, 2605, 2726, 2725
2584, 2605, 2606, 2727, 2726
2585, 2606, 2607, 2728, 2727
2586, 2607, 2608, 2729, 2728
2587, 2608, 2609, 2730, 2729
2588, 2609, 2610, 2731, 2730
2589, 2610, 2611, 2732, 2731
2590, 2611, 2612, 2733, 2732
2591, 2612, 2613, 2734, 2733
2592, 2613, 2614, 2735, 2734
2593, 2614, 2615, 2736, 2735
2594, 2615, 2616, 2737, 2736
2595, 2616, 2617, 2738, 2737
2596, 2617, 2618, 2739, 2738
2597, 2618, 2619, 2740, 2739
2598, 2619, 2620, 2741, 2740
2599, 2620, 2621, 2742, 2741
2600, 2621, 2622, 2743, 2742
2601, 2622, 2623, 2744, 2743
2602, 2623, 2624, 2745, 2744
2603, 2624, 2625, 2746, 2745
2604, 2625, 2626, 2747, 2746
2605, 2626, 2627, 2748, 2747
2606, 2627, 2628, 2749, 2748
2607, 2628, 2629, 2750, 2749
2608, 2629, 2630, 2751, 2750
2609, 2630, 2631, 2752, 2751
2610, 2631, 2632, 2753, 2752
2611, 2632, 2633, 2754, 2753
2612, 2633, 2634, 2755, 2754
2613, 2634, 2635, 2756, 2755
2614, 2635, 2636, 2757, 2756
2615, 2636, 2637, 2758, 2757
2616, 2637, 2638, 2759, 2758
2617, 2638, 2639, 2760, 2759
2618, 2639, 2640, 2761, 2760
2619, 2640, 2641, 2762, 2761
2620, 2641, 2642, 2763, 2762
2621, 2642, 2643, 2764, 2763
2622, 2643, 2644, 2765, 2764
2623, 2644, 2645, 2766, 2765
2624, 2645, 2646, 2767, 2766
2625, 2646, 2647, 2768, 2767
2626, 2647, 2648, 2769, 2768
2627, 2648, 2649, 2770, 2769
2628, 2649, 2650, 2771, 2770
2629, 2650, 2651, 2772, 2771
2630, 2651, 2652, 2773, 2772
2631, 2652, 2653, 2774, 2773
2632, 2653, 2654, 2775, 2774
2633, 2654, 2655, 2776, 2775
2634, 2655, 2656, 2777, 2776
2635, 2656, 2657, 2778, 2777
2636, 2657, 2658, 2779, 2778
2637, 2658, 2659, 2780, 2779
2638, 2659, 2660, 2781, 2780
2639, 2660, 2661, 2782, 2781
2640, 2661, 2662, 2783, 2782
2641, 2663, 2664, 2785, 2784
2642, 2664, 2665, 2786, 2785
2643, 2665, 2666, 2787, 2786
2644, 2666, 2667, 2788, 2787
2645, 2667, 2668, 2789, 2788
2646, 2668, 2669, 2790, 2789
2647, 2669, 2670, 2791, 2790
2648, 2670, 2671, 2792, 2791
2649, 2671, 2672, 2793, 2792
2650, 2672, 2673, 2794, 2793
2651, 2673, 2674, 2795, 2794
2652, 2674, 2675, 2796, 2795
2653, 2675, 2676, 2797, 2796
2654, 2676, 2677, 2798, 2797
2655, 2677, 2678, 2799, 2798
2656, 2678, 2679, 2800, 2799
2657, 2679, 2680, 2801, 2800
2658, 2680, 2681, 2802, 2801
2659, 2681, 2682, 2803, 2802
2660, 2682, 2683, 2804, 2803
2661, 2683, 2684, 2805, 2804
2662, 2684, 2685, 2806, 2805
2663, 2685, 2686, 2807, 2806
2664, 2686, 2687, 2808, 2807
2665, 2687, 2688, 2809, 2808
2666, 2688, 2689, 2810, 2809
2667, 2689, 2690, 2811, 2810
2668, 2690, 2691, 2812, 2811
2669, 2691, 2692, 2813, 2812
2670, 2692, 2693, 2814, 2813
2671, 2693, 2694, 2815, 2814
2672, 2694, 2695, 2816, 2815
2673, 2695, 2696, 2817, 2816
2674, 2696, 2697, 2818, 2817
2675, 2697, 2698, 2819, 2818
2676, 2698, 2699, 2820, 2819
2677, 2699, 2700, 2821, 2820
2678, 2700, 2701, 2822, 2821
2679, 2701, 2702, 2823, 2822
2680, 2702, 2703, 2824, 2823
2681, 2703, 2704, 2825, 2824
2682, 2704, 2705, 2826, 2825
2683, 2705, 2706, 2827, 2826
2684, 2706, 2707, 2828, 2827
2685, 2707, 2708, 2829, 2828
2686, 2708, 2709, 2830, 2829
2687, 2709, 2710, 2831, 2830
2688, 2710, 2711, 2832, 2831
2689, 2711, 2712, 2833, 2832
2690, 2712, 2713, 2834, 2833
2691, 2713, 2714, 2835, 2834
2692, 2714, 2715, 2836, 2835
2693, 2715, 2716, 2837, 2836
2694, 2716, 2717, 2838, 2837
2695, 2717, 2718, 2839, 2838
2696, 2718, 2719, 2840, 2839
2697, 2719, 2720, 2841, 2840
2698, 2720, 2721, 2842, 2841
2699, 2721, 2722, 2843, 2842
2700, 2722, 2723, 2844, 2843
2701, 2723, 2724, 2845, 2844
2702, 2724, 2725, 2846, 2845
2703, 2725, 2726, 2847, 2846
2704, 2726, 2727, 2848, 2847
2705, 2727, 2728, 2849, 2848
2706, 2728, 2729, 2850, 2849
2707, 2729, 2730, 2851, 2850
2708, 2730, 2731, 2852, 2851
2709, 2731, 2732, 2853, 2852
2710, 2732, 2733, 2854, 2853
2711, 2733, 2734, 2855, 2854
2712, 2734, 2735, 2856, 2855
2713, 2735, 2736, 2857, 2856
2714, 2736, 2737, 2858, 2857
2715, 2737, 2738, 2859, 2858
2716, 2738, 2739, 2860, 2859
2717, 2739, 2740, 2861, 2860
2718, 2740, 2741, 2862, 2861
2719, 2741, 2742, 2863, 2862
2720, 2742, 2743, 2864, 2863
2721, 2743, 2744, 2865, 2864
2722, 2744, 2745, 2866, 2865
2723, 2745, 2746, 2867, 2866
2724, 2746, 2747, 2868, 2867
2725, 2747, 2748, 2869, 2868
2726, 2748, 2749, 2870, 2869
2727, 2749, 2750, 2871, 2870
2728, 2750, 2751, 2872, 2871
2729, 2751, 2752, 2873, 2872
2730, 2752, 2753, 2874, 2873
2731, 2753, 2754, 2875, 2874
2732, 2754, 2755, 2876, 2875
2733, 2755, 2756, 2877, 2876
2734, 2756, 2757, 2878, 2877
2735, 2757, 2758, 2879, 2878
2736, 2758, 2759, 2880, 2879
2737, 2759, 2760, 2881, 2880
2738, 2760, 2761, 2882, 2881
2739, 2761, 2762, 2883, 2882
2740, 2762, 2763, 2884, 2883
2741, 2763, 2764, 2885, 2884
2742, 2764, 2765, 2886, 2885
2743, 2765, 2766, 2887, 2886
2744, 2766, 2767, 2888, 2887
2745, 2767, 2768, 2889, 2888
2746, 2768, 2769, 2890, 2889
2747, 2769, 2770, 2891, 2890
2748, 2770, 2771, 2892, 2891
2749, 2771, 2772, 2893, 2892
2750, 2772, 2773, 2894, 2893
2751, 2773, 2774, 2895, 2894
2752, 2774, 2775, 2896, 2895
2753, 2775, 2776, 2897, 2896
2754, 2776, 2777, 2898, 2897
2755, 2777, 2778, 2899, 2898
2756, 2778, 2779, 2900, 2899
2757, 2779, 2780, 2901, 2900
2758, 2780, 2781, 2902, 2901
2759, 2781, 2782, 2903, 2902
2760, 2782, 2783, 2904, 2903
2761, 2784, 2785, 2906, 2905
2762, 2785, 2786, 2907, 2906
2763, 2786, 2787, 2908, 2907
2764, 2787, 2788, 2909, 2908
2765, 2788, 2789, 2910, 2909
2766, 2789, 2790, 2911, 2910
2767, 2790, 2791, 2912, 2911
2768, 2791, 2792, 2913, 2912
2769, 2792, 2793, 2914, 2913
2770, 2793, 2794, 2915, 2914
2771, 2794, 2795, 2916, 2915
2772, 2795, 2796, 2917, 2916
2773, 2796, 2797, 2918, 2917
2774, 2797, 2798, 2919, 2918
2775, 2798, 2799, 2920, 2919
2776, 2799, 2800, 2921, 2920
2777, 2800, 2801, 2922, 2921
2778, 2801, 2802, 2923, 2922
2779, 2802, 2803, 2924, 2923
2780, 2803, 2804, 2925, 2924
2781, 2804, 2805, 2926, 2925
2782, 2805, 2806, 2927, 2926
2783, 2806, 2807, 2928, 2927
2784, 2807, 2808, 2929, 2928
2785, 2808, 2809, 2930, 2929
2786, 2809, 2810, 2931, 2930
2787, 2810, 2811, 2932, 2931
2788, 2811, 2812, 2933, 2932
2789, 2812, 2813, 2934, 2933
2790, 2813, 2814, 2935, 2934
2791, 2814, 2815, 2936, 2935
2792, 2815, 2816, 2937, 2936
2793, 2816, 2817, 2938, 2937
2794, 2817, 2818, 2939, 2938
2795, 2818, 2819, 2940, 2939
2796, 2819, 2820, 2941, 2940
2797, 2820, 2821, 2942, 2941
2798, 2821, 2822, 2943, 2942
2799, 2822, 2823, 2944, 2943
2800, 2823, 2824, 2945, 2944
2801, 2824, 2825, 2946, 2945
2802, 2825, 2826, 2947, 2946
2803, 2826, 2827, 2948, 2947
2804, 2827, 2828, 2949, 2948
2805, 2828, 2829, 2950, 2949
2806, 2829, 2830, 2951, 2950
2807, 2830, 2831, 2952, 2951
2808, 2831, 2832, 2953, 2952
2809, 2832, 2833, 2954, 2953
2810, 2833, 2834, 2955, 2954
2811, 2834, 2835, 2956, 2955
2812, 2835, 2836, 2957, 2956
2813, 2836, 2837, 2958, 2957
2814, 2837, 2838, 2959, 2958
2815, 2838, 2839, 2960, 2959
2816, 2839, 2840, 2961, 2960
2817, 2840, 2841, 2962, 2961
2818, 2841, 2842, 2963, 2962
2819, 2842, 2843, 2964, 2963
2820, 2843, 2844, 2965, 2964
2821, 2844, 2845, 2966, 2965
2822, 2845, 2846, 2967, 2966
2823, 2846, 2847, 2968, 2967
2824, 2847, 2848, 2969, 2968
2825, 2848, 2849, 2970, 2969
2826, 2849, 2850, 2971, 2970
2827, 2850, 2851, 2972, 2971
2828, 2851, 2852, 2973, 2972
2829, 2852, 2853, 2974, 2973
2830, 2853, 2854, 2975, 2974
2831, 2854, 2855, 2976, 2975
2832, 2855, 2856, 2977, 2976
2833, 2856, 2857, 2978, 2977
2834, 2857, 2858, 2979, 2978
2835, 2858, 2859, 2980, 2979
2836, 2859, 2860, 2981, 2980
2837, 2860, 2861, 2982, 2981
2838, 2861, 2862, 2983, 2982
2839, 2862, 2863, 2984, 2983
2840, 2863, 2864, 2985, 2984
2841, 2864, 2865, 2986, 2985
2842, 2865, 2866, 2987, 2986
2843, 2866, 2867, 2988, 2987
2844, 2867, 2868, 2989, 2988
2845, 2868, 2869, 2990, 2989
2846, 2869, 2870, 2991, 2990
2847, 2870, 2871, 2992, 2991
2848, 2871, 2872, 2993, 2992
2849, 2872, 2873, 2994, 2993
2850, 2873, 2874, 2995, 2994
2851, 2874, 2875, 2996, 2995
2852, 2875, 2876, 2997, 2996
2853, 2876, 2877, 2998, 2997
2854, 2877, 2878, 2999, 2998
2855, 2878, 2879, 3000, 2999
2856, 2879, 2880, 3001, 3000
2857, 2880, 2881, 3002, 3001
2858, 2881, 2882, 3003, 3002
2859, 2882, 2883, 3004, 3003
2860, 2883, 2884, 3005, 3004
2861, 2884, 2885, 3006, 3005
2862, 2885, 2886, 3007, 3006
2863, 2886, 2887, 3008, 3007
2864, 2887, 2888, 3009, 3008
2865, 2888, 2889, 3010, 3009
2866, 2889, 2890, 3011, 3010
2867, 2890, 2891, 3012, 3011
2868, 2891, 2892, 3013, 3012
2869, 2892, 2893, 3014, 3013
2870, 2893, 2894, 3015, 3014
2871, 2894, 2895, 3016, 3015
2872, 2895, 2896, 3017, 3016
2873, 2896, 2897, 3018, 3017
2874, 2897, 2898, 3019, 3018
2875, 2898, 2899, 3020, 3019
2876, 2899, 2900, 3021, 3020
2877, 2900, 2901, 3022, 3021
2878, 2901, 2902, 3023, 3022
2879, 2902, 2903, 3024, 3023
2880, 2903, 2904, 3025, 3024
*Nset, nset=_PickedSet2, internal, generate
    1,  3025,     1
*Elset, elset=_PickedSet2, internal, generate
    1,  2880,     1
** Section: Sec_ActiveLayer
*Solid Section, elset=_PickedSet2, material=ActiveLayer_DPC, controls=FilmControls
,
*End Part
**  
*Part, name=BottomRigidPlate
*End Part
**  
*Part, name=TopRigidPlate
*End Part
**  
**
** ASSEMBLY
**
*Assembly, name=Assembly
**  
*Instance, name=ActiveLayer-1, part=ActiveLayer
*End Instance
**  
*Instance, name=TopPlate-1, part=TopRigidPlate
          0.,         0.15,           0.
*Node
      1,           0.,           0.,           0.
*Nset, nset=TopPlate-1-RefPt_, internal
1, 
*Surface, type=SEGMENTS, name=PlateSurface
START,          3.2,           0.
 LINE,         -3.2,           0.
*Rigid Body, ref node=TopPlate-1-RefPt_, analytical surface=PlateSurface
*End Instance
**  
*Instance, name=BottomPlate-1, part=BottomRigidPlate
*Node
      1,           0.,           0.,           0.
*Nset, nset=BottomPlate-1-RefPt_, internal
1, 
*Surface, type=SEGMENTS, name=PlateSurface
START,         -3.2,           0.
 LINE,          3.2,           0.
*Rigid Body, ref node=BottomPlate-1-RefPt_, analytical surface=PlateSurface
*End Instance
**  
*Nset, nset=Bottom_Left_Node, instance=ActiveLayer-1
 1,
*Nset, nset=Bottom_Nodes, instance=ActiveLayer-1, generate
   1,  121,    1
*Nset, nset=RP_BottomPlate, instance=BottomPlate-1
 1,
*Nset, nset=RP_TopPlate, instance=TopPlate-1
 1,
*Nset, nset=Sheet_All, instance=ActiveLayer-1, generate
    1,  3025,     1
*Elset, elset=Sheet_All, instance=ActiveLayer-1, generate
    1,  2880,     1
*Nset, nset=Top_Nodes, instance=ActiveLayer-1, generate
 2905,  3025,     1
*Elset, elset=_Sheet_Bottom_S1, internal, instance=ActiveLayer-1, generate
   1,  120,    1
*Surface, type=ELEMENT, name=Sheet_Bottom
_Sheet_Bottom_S1, S1
*Elset, elset=_Sheet_Top_S3, internal, instance=ActiveLayer-1, generate
 2761,  2880,     1
*Surface, type=ELEMENT, name=Sheet_Top
_Sheet_Top_S3, S3
*End Assembly
*Amplitude, name=Amp_Top_U2_Total, time=TOTAL TIME, definition=SMOOTH STEP
             0.,              0.,             0.2,          -0.015,            0.25,          -0.015,            0.45,           0.002
           0.55,           0.002
** 
** MATERIALS
** 
*Material, name=ActiveLayer_DPC
*Cap Plasticity
4.,  65.,  0.8,  60., 0.02,   1.
*Cap Hardening
 60.,   0.
 62., 0.05
 66.,  0.1
 72., 0.15
 80., 0.18
 90.,  0.2
110., 0.22
140., 0.24
190., 0.26
270., 0.28
390.,  0.3
480., 0.31
600., 0.32
740., 0.33
*Density
 2.55e-09,
*Elastic
50., 0.15
** 
** INTERACTION PROPERTIES
** 
*Surface Interaction, name=Plate_Film_mu0p1
*Friction
 0.1,
*Surface Behavior, pressure-overclosure=HARD
** 
** BOUNDARY CONDITIONS
** 
** Name: BC_BottomPlate_Fixed Type: 位移/转角
*Boundary
RP_BottomPlate, 1, 1
RP_BottomPlate, 2, 2
RP_BottomPlate, 6, 6
** Name: BC_Sheet_X_Anchor Type: 位移/转角
*Boundary
Bottom_Left_Node, 1, 1
** Name: BC_TopPlate_XR_Fixed Type: 位移/转角
*Boundary
RP_TopPlate, 1, 1
RP_TopPlate, 6, 6
** ----------------------------------------------------------------
** 
** STEP: Compress_Down
** 
*Step, name=Compress_Down, nlgeom=YES
*Dynamic, Explicit
, 0.2
*Bulk Viscosity
0.12, 1.2
** Mass Scaling: Semi-Automatic
**               Whole Model
*Fixed Mass Scaling, dt=1e-06, type=below min
** 
** BOUNDARY CONDITIONS
** 
** Name: BC_TopPlate_U2_History Type: 位移/转角
*Boundary, amplitude=Amp_Top_U2_Total
RP_TopPlate, 2, 2, 1.
** 
** INTERACTIONS
** 
** Interaction: BottomPlate_to_Film
*Contact Pair, op=ADD, interaction=Plate_Film_mu0p1, mechanical constraint=KINEMATIC, cpset=BottomPlate_to_Film
BottomPlate-1.PlateSurface, Sheet_Bottom
** Interaction: TopPlate_to_Film
*Contact Pair, op=ADD, interaction=Plate_Film_mu0p1, mechanical constraint=KINEMATIC, cpset=TopPlate_to_Film
TopPlate-1.PlateSurface, Sheet_Top
** 
** OUTPUT REQUESTS
** 
*Restart, write, number interval=1, time marks=NO
** 
** FIELD OUTPUT: F_Sheet
** 
*Output, field, number interval=160
*Node Output, nset=Sheet_All
A, U, V
*Element Output, elset=Sheet_All, directions=YES
LE, PE, PEEQ, S
*Contact Output, variable=PRESELECT
** 
** HISTORY OUTPUT: H-Output-1
** 
*Output, history, variable=PRESELECT
** 
** HISTORY OUTPUT: H_Energy
** 
*Output, history, time interval=0.0004
*Energy Output
ALLAE, ALLIE, ALLKE, ALLMW, ALLPD, ALLSE, ALLWK
** 
** HISTORY OUTPUT: H_BottomPlate_RP
** 
*Node Output, nset=RP_BottomPlate
RF1, RF2, U2, V2
** 
** HISTORY OUTPUT: H_TopPlate_RP
** 
*Node Output, nset=RP_TopPlate
RF1, RF2, U2, V2
*End Step
** ----------------------------------------------------------------
** 
** STEP: Hold_135um
** 
*Step, name=Hold_135um, nlgeom=YES
*Dynamic, Explicit
, 0.05
*Bulk Viscosity
0.12, 1.2
** 
** OUTPUT REQUESTS
** 
*Restart, write, number interval=1, time marks=NO
** 
** FIELD OUTPUT: F_Sheet
** 
*Output, field, number interval=160
*Node Output, nset=Sheet_All
A, U, V
*Element Output, elset=Sheet_All, directions=YES
LE, PE, PEEQ, S
*Contact Output, variable=PRESELECT
** 
** HISTORY OUTPUT: H-Output-1
** 
*Output, history, variable=PRESELECT
** 
** HISTORY OUTPUT: H_Energy
** 
*Output, history, time interval=0.0001
*Energy Output
ALLAE, ALLIE, ALLKE, ALLMW, ALLPD, ALLSE, ALLWK
** 
** HISTORY OUTPUT: H_BottomPlate_RP
** 
*Node Output, nset=RP_BottomPlate
RF1, RF2, U2, V2
** 
** HISTORY OUTPUT: H_TopPlate_RP
** 
*Node Output, nset=RP_TopPlate
RF1, RF2, U2, V2
*End Step
** ----------------------------------------------------------------
** 
** STEP: Unload
** 
*Step, name=Unload, nlgeom=YES
*Dynamic, Explicit
, 0.2
*Bulk Viscosity
0.12, 1.2
** 
** OUTPUT REQUESTS
** 
*Restart, write, number interval=1, time marks=NO
** 
** FIELD OUTPUT: F_Sheet
** 
*Output, field, number interval=160
*Node Output, nset=Sheet_All
A, U, V
*Element Output, elset=Sheet_All, directions=YES
LE, PE, PEEQ, S
*Contact Output, variable=PRESELECT
** 
** HISTORY OUTPUT: H-Output-1
** 
*Output, history, variable=PRESELECT
** 
** HISTORY OUTPUT: H_Energy
** 
*Output, history, time interval=0.0004
*Energy Output
ALLAE, ALLIE, ALLKE, ALLMW, ALLPD, ALLSE, ALLWK
** 
** HISTORY OUTPUT: H_BottomPlate_RP
** 
*Node Output, nset=RP_BottomPlate
RF1, RF2, U2, V2
** 
** HISTORY OUTPUT: H_TopPlate_RP
** 
*Node Output, nset=RP_TopPlate
RF1, RF2, U2, V2
*End Step
** ----------------------------------------------------------------
** 
** STEP: Free_Settle
** 
*Step, name=Free_Settle, nlgeom=YES
*Dynamic, Explicit
, 0.1
*Bulk Viscosity
0.12, 1.2
** 
** OUTPUT REQUESTS
** 
*Restart, write, number interval=1, time marks=NO
** 
** FIELD OUTPUT: F_Sheet
** 
*Output, field, number interval=160
*Node Output, nset=Sheet_All
A, U, V
*Element Output, elset=Sheet_All, directions=YES
LE, PE, PEEQ, S
*Contact Output, variable=PRESELECT
** 
** HISTORY OUTPUT: H-Output-1
** 
*Output, history, variable=PRESELECT
** 
** HISTORY OUTPUT: H_Energy
** 
*Output, history, time interval=0.0002
*Energy Output
ALLAE, ALLIE, ALLKE, ALLMW, ALLPD, ALLSE, ALLWK
** 
** HISTORY OUTPUT: H_BottomPlate_RP
** 
*Node Output, nset=RP_BottomPlate
RF1, RF2, U2, V2
** 
** HISTORY OUTPUT: H_TopPlate_RP
** 
*Node Output, nset=RP_TopPlate
RF1, RF2, U2, V2
*End Step
