*Heading
 2D quick plane-strain DPC roll pressing thickness check
** Job name: RollPress_2D_DPC_RollFit_E6500_S00008B5 Model name: RollPress_2D_DPC_RollFit_E6500_S00008B5
** Generated by: Abaqus/CAE 2025
*Preprint, echo=NO, model=NO, history=NO, contact=NO
**
** SECTION CONTROLS
*SECTION CONTROLS, NAME=FilmControls, HOURGLASS=ENHANCED, DISTORTION CONTROL=YES
** PARTS
**
*Part, name=ActiveLayer
*Node
      1,           2.,           0.
      2,           2.,  0.150000006
      3,           1.,  0.150000006
      4,           1.,           0.
      5,           0.,  0.150000006
      6,           0.,           0.
      7,          -1.,  0.150000006
      8,          -1.,           0.
      9,          -2.,  0.150000006
     10,          -2.,           0.
     11,          -3.,  0.150000006
     12,          -3.,           0.
     13,           3.,           0.
     14,           3.,  0.150000006
     15,           2., 0.00625000009
     16,           2., 0.0125000002
     17,           2., 0.0187500007
     18,           2., 0.0250000004
     19,           2.,      0.03125
     20,           2., 0.0375000015
     21,           2., 0.0437499993
     22,           2., 0.0500000007
     23,           2., 0.0562499985
     24,           2.,       0.0625
     25,           2., 0.0687500015
     26,           2.,  0.075000003
     27,           2.,  0.081249997
     28,           2., 0.0874999985
     29,           2.,      0.09375
     30,           2.,  0.100000001
     31,           2.,  0.106250003
     32,           2.,  0.112499997
     33,           2.,  0.118749999
     34,           2.,        0.125
     35,           2.,  0.131249994
     36,           2.,  0.137500003
     37,           2.,  0.143749997
     38,   1.97500002,  0.150000006
     39,   1.95000005,  0.150000006
     40,   1.92499995,  0.150000006
     41,   1.89999998,  0.150000006
     42,        1.875,  0.150000006
     43,   1.85000002,  0.150000006
     44,   1.82500005,  0.150000006
     45,   1.79999995,  0.150000006
     46,   1.77499998,  0.150000006
     47,         1.75,  0.150000006
     48,   1.72500002,  0.150000006
     49,   1.70000005,  0.150000006
     50,   1.67499995,  0.150000006
     51,   1.64999998,  0.150000006
     52,        1.625,  0.150000006
     53,   1.60000002,  0.150000006
     54,   1.57500005,  0.150000006
     55,   1.54999995,  0.150000006
     56,   1.52499998,  0.150000006
     57,          1.5,  0.150000006
     58,   1.47500002,  0.150000006
     59,   1.45000005,  0.150000006
     60,   1.42499995,  0.150000006
     61,   1.39999998,  0.150000006
     62,        1.375,  0.150000006
     63,   1.35000002,  0.150000006
     64,   1.32500005,  0.150000006
     65,   1.29999995,  0.150000006
     66,   1.27499998,  0.150000006
     67,         1.25,  0.150000006
     68,   1.22500002,  0.150000006
     69,   1.20000005,  0.150000006
     70,   1.17499995,  0.150000006
     71,   1.14999998,  0.150000006
     72,        1.125,  0.150000006
     73,   1.10000002,  0.150000006
     74,   1.07500005,  0.150000006
     75,   1.04999995,  0.150000006
     76,   1.02499998,  0.150000006
     77,           1.,  0.143749997
     78,           1.,  0.137500003
     79,           1.,  0.131249994
     80,           1.,        0.125
     81,           1.,  0.118749999
     82,           1.,  0.112499997
     83,           1.,  0.106250003
     84,           1.,  0.100000001
     85,           1.,      0.09375
     86,           1., 0.0874999985
     87,           1.,  0.081249997
     88,           1.,  0.075000003
     89,           1., 0.0687500015
     90,           1.,       0.0625
     91,           1., 0.0562499985
     92,           1., 0.0500000007
     93,           1., 0.0437499993
     94,           1., 0.0375000015
     95,           1.,      0.03125
     96,           1., 0.0250000004
     97,           1., 0.0187500007
     98,           1., 0.0125000002
     99,           1., 0.00625000009
    100,   1.02499998,           0.
    101,   1.04999995,           0.
    102,   1.07500005,           0.
    103,   1.10000002,           0.
    104,        1.125,           0.
    105,   1.14999998,           0.
    106,   1.17499995,           0.
    107,   1.20000005,           0.
    108,   1.22500002,           0.
    109,         1.25,           0.
    110,   1.27499998,           0.
    111,   1.29999995,           0.
    112,   1.32500005,           0.
    113,   1.35000002,           0.
    114,        1.375,           0.
    115,   1.39999998,           0.
    116,   1.42499995,           0.
    117,   1.45000005,           0.
    118,   1.47500002,           0.
    119,          1.5,           0.
    120,   1.52499998,           0.
    121,   1.54999995,           0.
    122,   1.57500005,           0.
    123,   1.60000002,           0.
    124,        1.625,           0.
    125,   1.64999998,           0.
    126,   1.67499995,           0.
    127,   1.70000005,           0.
    128,   1.72500002,           0.
    129,         1.75,           0.
    130,   1.77499998,           0.
    131,   1.79999995,           0.
    132,   1.82500005,           0.
    133,   1.85000002,           0.
    134,        1.875,           0.
    135,   1.89999998,           0.
    136,   1.92499995,           0.
    137,   1.95000005,           0.
    138,   1.97500002,           0.
    139,  0.975000024,  0.150000006
    140,  0.949999988,  0.150000006
    141,  0.925000012,  0.150000006
    142,  0.899999976,  0.150000006
    143,        0.875,  0.150000006
    144,  0.850000024,  0.150000006
    145,  0.824999988,  0.150000006
    146,  0.800000012,  0.150000006
    147,  0.774999976,  0.150000006
    148,         0.75,  0.150000006
    149,  0.725000024,  0.150000006
    150,  0.699999988,  0.150000006
    151,  0.675000012,  0.150000006
    152,  0.649999976,  0.150000006
    153,        0.625,  0.150000006
    154,  0.600000024,  0.150000006
    155,  0.574999988,  0.150000006
    156,  0.550000012,  0.150000006
    157,  0.524999976,  0.150000006
    158,          0.5,  0.150000006
    159,  0.474999994,  0.150000006
    160,  0.449999988,  0.150000006
    161,  0.425000012,  0.150000006
    162,  0.400000006,  0.150000006
    163,        0.375,  0.150000006
    164,  0.349999994,  0.150000006
    165,  0.324999988,  0.150000006
    166,  0.300000012,  0.150000006
    167,  0.275000006,  0.150000006
    168,         0.25,  0.150000006
    169,  0.224999994,  0.150000006
    170,  0.200000003,  0.150000006
    171,  0.174999997,  0.150000006
    172,  0.150000006,  0.150000006
    173,        0.125,  0.150000006
    174,  0.100000001,  0.150000006
    175,  0.075000003,  0.150000006
    176, 0.0500000007,  0.150000006
    177, 0.0250000004,  0.150000006
    178,           0.,  0.143749997
    179,           0.,  0.137500003
    180,           0.,  0.131249994
    181,           0.,        0.125
    182,           0.,  0.118749999
    183,           0.,  0.112499997
    184,           0.,  0.106250003
    185,           0.,  0.100000001
    186,           0.,      0.09375
    187,           0., 0.0874999985
    188,           0.,  0.081249997
    189,           0.,  0.075000003
    190,           0., 0.0687500015
    191,           0.,       0.0625
    192,           0., 0.0562499985
    193,           0., 0.0500000007
    194,           0., 0.0437499993
    195,           0., 0.0375000015
    196,           0.,      0.03125
    197,           0., 0.0250000004
    198,           0., 0.0187500007
    199,           0., 0.0125000002
    200,           0., 0.00625000009
    201, 0.0250000004,           0.
    202, 0.0500000007,           0.
    203,  0.075000003,           0.
    204,  0.100000001,           0.
    205,        0.125,           0.
    206,  0.150000006,           0.
    207,  0.174999997,           0.
    208,  0.200000003,           0.
    209,  0.224999994,           0.
    210,         0.25,           0.
    211,  0.275000006,           0.
    212,  0.300000012,           0.
    213,  0.324999988,           0.
    214,  0.349999994,           0.
    215,        0.375,           0.
    216,  0.400000006,           0.
    217,  0.425000012,           0.
    218,  0.449999988,           0.
    219,  0.474999994,           0.
    220,          0.5,           0.
    221,  0.524999976,           0.
    222,  0.550000012,           0.
    223,  0.574999988,           0.
    224,  0.600000024,           0.
    225,        0.625,           0.
    226,  0.649999976,           0.
    227,  0.675000012,           0.
    228,  0.699999988,           0.
    229,  0.725000024,           0.
    230,         0.75,           0.
    231,  0.774999976,           0.
    232,  0.800000012,           0.
    233,  0.824999988,           0.
    234,  0.850000024,           0.
    235,        0.875,           0.
    236,  0.899999976,           0.
    237,  0.925000012,           0.
    238,  0.949999988,           0.
    239,  0.975000024,           0.
    240, -0.0250000004,  0.150000006
    241, -0.0500000007,  0.150000006
    242, -0.075000003,  0.150000006
    243, -0.100000001,  0.150000006
    244,       -0.125,  0.150000006
    245, -0.150000006,  0.150000006
    246, -0.174999997,  0.150000006
    247, -0.200000003,  0.150000006
    248, -0.224999994,  0.150000006
    249,        -0.25,  0.150000006
    250, -0.275000006,  0.150000006
    251, -0.300000012,  0.150000006
    252, -0.324999988,  0.150000006
    253, -0.349999994,  0.150000006
    254,       -0.375,  0.150000006
    255, -0.400000006,  0.150000006
    256, -0.425000012,  0.150000006
    257, -0.449999988,  0.150000006
    258, -0.474999994,  0.150000006
    259,         -0.5,  0.150000006
    260, -0.524999976,  0.150000006
    261, -0.550000012,  0.150000006
    262, -0.574999988,  0.150000006
    263, -0.600000024,  0.150000006
    264,       -0.625,  0.150000006
    265, -0.649999976,  0.150000006
    266, -0.675000012,  0.150000006
    267, -0.699999988,  0.150000006
    268, -0.725000024,  0.150000006
    269,        -0.75,  0.150000006
    270, -0.774999976,  0.150000006
    271, -0.800000012,  0.150000006
    272, -0.824999988,  0.150000006
    273, -0.850000024,  0.150000006
    274,       -0.875,  0.150000006
    275, -0.899999976,  0.150000006
    276, -0.925000012,  0.150000006
    277, -0.949999988,  0.150000006
    278, -0.975000024,  0.150000006
    279,          -1.,  0.143749997
    280,          -1.,  0.137500003
    281,          -1.,  0.131249994
    282,          -1.,        0.125
    283,          -1.,  0.118749999
    284,          -1.,  0.112499997
    285,          -1.,  0.106250003
    286,          -1.,  0.100000001
    287,          -1.,      0.09375
    288,          -1., 0.0874999985
    289,          -1.,  0.081249997
    290,          -1.,  0.075000003
    291,          -1., 0.0687500015
    292,          -1.,       0.0625
    293,          -1., 0.0562499985
    294,          -1., 0.0500000007
    295,          -1., 0.0437499993
    296,          -1., 0.0375000015
    297,          -1.,      0.03125
    298,          -1., 0.0250000004
    299,          -1., 0.0187500007
    300,          -1., 0.0125000002
    301,          -1., 0.00625000009
    302, -0.975000024,           0.
    303, -0.949999988,           0.
    304, -0.925000012,           0.
    305, -0.899999976,           0.
    306,       -0.875,           0.
    307, -0.850000024,           0.
    308, -0.824999988,           0.
    309, -0.800000012,           0.
    310, -0.774999976,           0.
    311,        -0.75,           0.
    312, -0.725000024,           0.
    313, -0.699999988,           0.
    314, -0.675000012,           0.
    315, -0.649999976,           0.
    316,       -0.625,           0.
    317, -0.600000024,           0.
    318, -0.574999988,           0.
    319, -0.550000012,           0.
    320, -0.524999976,           0.
    321,         -0.5,           0.
    322, -0.474999994,           0.
    323, -0.449999988,           0.
    324, -0.425000012,           0.
    325, -0.400000006,           0.
    326,       -0.375,           0.
    327, -0.349999994,           0.
    328, -0.324999988,           0.
    329, -0.300000012,           0.
    330, -0.275000006,           0.
    331,        -0.25,           0.
    332, -0.224999994,           0.
    333, -0.200000003,           0.
    334, -0.174999997,           0.
    335, -0.150000006,           0.
    336,       -0.125,           0.
    337, -0.100000001,           0.
    338, -0.075000003,           0.
    339, -0.0500000007,           0.
    340, -0.0250000004,           0.
    341,  -1.02499998,  0.150000006
    342,  -1.04999995,  0.150000006
    343,  -1.07500005,  0.150000006
    344,  -1.10000002,  0.150000006
    345,       -1.125,  0.150000006
    346,  -1.14999998,  0.150000006
    347,  -1.17499995,  0.150000006
    348,  -1.20000005,  0.150000006
    349,  -1.22500002,  0.150000006
    350,        -1.25,  0.150000006
    351,  -1.27499998,  0.150000006
    352,  -1.29999995,  0.150000006
    353,  -1.32500005,  0.150000006
    354,  -1.35000002,  0.150000006
    355,       -1.375,  0.150000006
    356,  -1.39999998,  0.150000006
    357,  -1.42499995,  0.150000006
    358,  -1.45000005,  0.150000006
    359,  -1.47500002,  0.150000006
    360,         -1.5,  0.150000006
    361,  -1.52499998,  0.150000006
    362,  -1.54999995,  0.150000006
    363,  -1.57500005,  0.150000006
    364,  -1.60000002,  0.150000006
    365,       -1.625,  0.150000006
    366,  -1.64999998,  0.150000006
    367,  -1.67499995,  0.150000006
    368,  -1.70000005,  0.150000006
    369,  -1.72500002,  0.150000006
    370,        -1.75,  0.150000006
    371,  -1.77499998,  0.150000006
    372,  -1.79999995,  0.150000006
    373,  -1.82500005,  0.150000006
    374,  -1.85000002,  0.150000006
    375,       -1.875,  0.150000006
    376,  -1.89999998,  0.150000006
    377,  -1.92499995,  0.150000006
    378,  -1.95000005,  0.150000006
    379,  -1.97500002,  0.150000006
    380,          -2.,  0.143749997
    381,          -2.,  0.137500003
    382,          -2.,  0.131249994
    383,          -2.,        0.125
    384,          -2.,  0.118749999
    385,          -2.,  0.112499997
    386,          -2.,  0.106250003
    387,          -2.,  0.100000001
    388,          -2.,      0.09375
    389,          -2., 0.0874999985
    390,          -2.,  0.081249997
    391,          -2.,  0.075000003
    392,          -2., 0.0687500015
    393,          -2.,       0.0625
    394,          -2., 0.0562499985
    395,          -2., 0.0500000007
    396,          -2., 0.0437499993
    397,          -2., 0.0375000015
    398,          -2.,      0.03125
    399,          -2., 0.0250000004
    400,          -2., 0.0187500007
    401,          -2., 0.0125000002
    402,          -2., 0.00625000009
    403,  -1.97500002,           0.
    404,  -1.95000005,           0.
    405,  -1.92499995,           0.
    406,  -1.89999998,           0.
    407,       -1.875,           0.
    408,  -1.85000002,           0.
    409,  -1.82500005,           0.
    410,  -1.79999995,           0.
    411,  -1.77499998,           0.
    412,        -1.75,           0.
    413,  -1.72500002,           0.
    414,  -1.70000005,           0.
    415,  -1.67499995,           0.
    416,  -1.64999998,           0.
    417,       -1.625,           0.
    418,  -1.60000002,           0.
    419,  -1.57500005,           0.
    420,  -1.54999995,           0.
    421,  -1.52499998,           0.
    422,         -1.5,           0.
    423,  -1.47500002,           0.
    424,  -1.45000005,           0.
    425,  -1.42499995,           0.
    426,  -1.39999998,           0.
    427,       -1.375,           0.
    428,  -1.35000002,           0.
    429,  -1.32500005,           0.
    430,  -1.29999995,           0.
    431,  -1.27499998,           0.
    432,        -1.25,           0.
    433,  -1.22500002,           0.
    434,  -1.20000005,           0.
    435,  -1.17499995,           0.
    436,  -1.14999998,           0.
    437,       -1.125,           0.
    438,  -1.10000002,           0.
    439,  -1.07500005,           0.
    440,  -1.04999995,           0.
    441,  -1.02499998,           0.
    442,  -2.04999995,  0.150000006
    443,   -2.0999999,  0.150000006
    444,   -2.1500001,  0.150000006
    445,  -2.20000005,  0.150000006
    446,        -2.25,  0.150000006
    447,  -2.29999995,  0.150000006
    448,   -2.3499999,  0.150000006
    449,   -2.4000001,  0.150000006
    450,  -2.45000005,  0.150000006
    451,         -2.5,  0.150000006
    452,  -2.54999995,  0.150000006
    453,   -2.5999999,  0.150000006
    454,   -2.6500001,  0.150000006
    455,  -2.70000005,  0.150000006
    456,        -2.75,  0.150000006
    457,  -2.79999995,  0.150000006
    458,   -2.8499999,  0.150000006
    459,   -2.9000001,  0.150000006
    460,  -2.95000005,  0.150000006
    461,          -3.,  0.143749997
    462,          -3.,  0.137500003
    463,          -3.,  0.131249994
    464,          -3.,        0.125
    465,          -3.,  0.118749999
    466,          -3.,  0.112499997
    467,          -3.,  0.106250003
    468,          -3.,  0.100000001
    469,          -3.,      0.09375
    470,          -3., 0.0874999985
    471,          -3.,  0.081249997
    472,          -3.,  0.075000003
    473,          -3., 0.0687500015
    474,          -3.,       0.0625
    475,          -3., 0.0562499985
    476,          -3., 0.0500000007
    477,          -3., 0.0437499993
    478,          -3., 0.0375000015
    479,          -3.,      0.03125
    480,          -3., 0.0250000004
    481,          -3., 0.0187500007
    482,          -3., 0.0125000002
    483,          -3., 0.00625000009
    484,  -2.95000005,           0.
    485,   -2.9000001,           0.
    486,   -2.8499999,           0.
    487,  -2.79999995,           0.
    488,        -2.75,           0.
    489,  -2.70000005,           0.
    490,   -2.6500001,           0.
    491,   -2.5999999,           0.
    492,  -2.54999995,           0.
    493,         -2.5,           0.
    494,  -2.45000005,           0.
    495,   -2.4000001,           0.
    496,   -2.3499999,           0.
    497,  -2.29999995,           0.
    498,        -2.25,           0.
    499,  -2.20000005,           0.
    500,   -2.1500001,           0.
    501,   -2.0999999,           0.
    502,  -2.04999995,           0.
    503,   2.04999995,           0.
    504,    2.0999999,           0.
    505,    2.1500001,           0.
    506,   2.20000005,           0.
    507,         2.25,           0.
    508,   2.29999995,           0.
    509,    2.3499999,           0.
    510,    2.4000001,           0.
    511,   2.45000005,           0.
    512,          2.5,           0.
    513,   2.54999995,           0.
    514,    2.5999999,           0.
    515,    2.6500001,           0.
    516,   2.70000005,           0.
    517,         2.75,           0.
    518,   2.79999995,           0.
    519,    2.8499999,           0.
    520,    2.9000001,           0.
    521,   2.95000005,           0.
    522,           3., 0.00625000009
    523,           3., 0.0125000002
    524,           3., 0.0187500007
    525,           3., 0.0250000004
    526,           3.,      0.03125
    527,           3., 0.0375000015
    528,           3., 0.0437499993
    529,           3., 0.0500000007
    530,           3., 0.0562499985
    531,           3.,       0.0625
    532,           3., 0.0687500015
    533,           3.,  0.075000003
    534,           3.,  0.081249997
    535,           3., 0.0874999985
    536,           3.,      0.09375
    537,           3.,  0.100000001
    538,           3.,  0.106250003
    539,           3.,  0.112499997
    540,           3.,  0.118749999
    541,           3.,        0.125
    542,           3.,  0.131249994
    543,           3.,  0.137500003
    544,           3.,  0.143749997
    545,   2.95000005,  0.150000006
    546,    2.9000001,  0.150000006
    547,    2.8499999,  0.150000006
    548,   2.79999995,  0.150000006
    549,         2.75,  0.150000006
    550,   2.70000005,  0.150000006
    551,    2.6500001,  0.150000006
    552,    2.5999999,  0.150000006
    553,   2.54999995,  0.150000006
    554,          2.5,  0.150000006
    555,   2.45000005,  0.150000006
    556,    2.4000001,  0.150000006
    557,    2.3499999,  0.150000006
    558,   2.29999995,  0.150000006
    559,         2.25,  0.150000006
    560,   2.20000005,  0.150000006
    561,    2.1500001,  0.150000006
    562,    2.0999999,  0.150000006
    563,   2.04999995,  0.150000006
    564,   1.97500002, 0.00625000009
    565,   1.97500002, 0.0125000002
    566,   1.97500002, 0.0187500007
    567,   1.97500002, 0.0250000004
    568,   1.97500002,      0.03125
    569,   1.97500002, 0.0375000015
    570,   1.97500002, 0.0437499993
    571,   1.97500002, 0.0500000007
    572,   1.97500002, 0.0562499985
    573,   1.97500002,       0.0625
    574,   1.97500002, 0.0687500015
    575,   1.97500002,  0.075000003
    576,   1.97500002,  0.081249997
    577,   1.97500002, 0.0874999985
    578,   1.97500002,      0.09375
    579,   1.97500002,  0.100000001
    580,   1.97500002,  0.106250003
    581,   1.97500002,  0.112499997
    582,   1.97500002,  0.118749999
    583,   1.97500002,        0.125
    584,   1.97500002,  0.131249994
    585,   1.97500002,  0.137500003
    586,   1.97500002,  0.143749997
    587,   1.95000005, 0.00625000009
    588,   1.95000005, 0.0125000002
    589,   1.95000005, 0.0187500007
    590,   1.95000005, 0.0250000004
    591,   1.95000005,      0.03125
    592,   1.95000005, 0.0375000015
    593,   1.95000005, 0.0437499993
    594,   1.95000005, 0.0500000007
    595,   1.95000005, 0.0562499985
    596,   1.95000005,       0.0625
    597,   1.95000005, 0.0687500015
    598,   1.95000005,  0.075000003
    599,   1.95000005,  0.081249997
    600,   1.95000005, 0.0874999985
    601,   1.95000005,      0.09375
    602,   1.95000005,  0.100000001
    603,   1.95000005,  0.106250003
    604,   1.95000005,  0.112499997
    605,   1.95000005,  0.118749999
    606,   1.95000005,        0.125
    607,   1.95000005,  0.131249994
    608,   1.95000005,  0.137500003
    609,   1.95000005,  0.143749997
    610,   1.92499995, 0.00625000009
    611,   1.92499995, 0.0125000002
    612,   1.92499995, 0.0187500007
    613,   1.92499995, 0.0250000004
    614,   1.92499995,      0.03125
    615,   1.92499995, 0.0375000015
    616,   1.92499995, 0.0437499993
    617,   1.92499995, 0.0500000007
    618,   1.92499995, 0.0562499985
    619,   1.92499995,       0.0625
    620,   1.92499995, 0.0687500015
    621,   1.92499995,  0.075000003
    622,   1.92499995,  0.081249997
    623,   1.92499995, 0.0874999985
    624,   1.92499995,      0.09375
    625,   1.92499995,  0.100000001
    626,   1.92499995,  0.106250003
    627,   1.92499995,  0.112499997
    628,   1.92499995,  0.118749999
    629,   1.92499995,        0.125
    630,   1.92499995,  0.131249994
    631,   1.92499995,  0.137500003
    632,   1.92499995,  0.143749997
    633,   1.89999998, 0.00625000009
    634,   1.89999998, 0.0125000002
    635,   1.89999998, 0.0187500007
    636,   1.89999998, 0.0250000004
    637,   1.89999998,      0.03125
    638,   1.89999998, 0.0375000015
    639,   1.89999998, 0.0437499993
    640,   1.89999998, 0.0500000007
    641,   1.89999998, 0.0562499985
    642,   1.89999998,       0.0625
    643,   1.89999998, 0.0687500015
    644,   1.89999998,  0.075000003
    645,   1.89999998,  0.081249997
    646,   1.89999998, 0.0874999985
    647,   1.89999998,      0.09375
    648,   1.89999998,  0.100000001
    649,   1.89999998,  0.106250003
    650,   1.89999998,  0.112499997
    651,   1.89999998,  0.118749999
    652,   1.89999998,        0.125
    653,   1.89999998,  0.131249994
    654,   1.89999998,  0.137500003
    655,   1.89999998,  0.143749997
    656,        1.875, 0.00625000009
    657,        1.875, 0.0125000002
    658,        1.875, 0.0187500007
    659,        1.875, 0.0250000004
    660,        1.875,      0.03125
    661,        1.875, 0.0375000015
    662,        1.875, 0.0437499993
    663,        1.875, 0.0500000007
    664,        1.875, 0.0562499985
    665,        1.875,       0.0625
    666,        1.875, 0.0687500015
    667,        1.875,  0.075000003
    668,        1.875,  0.081249997
    669,        1.875, 0.0874999985
    670,        1.875,      0.09375
    671,        1.875,  0.100000001
    672,        1.875,  0.106250003
    673,        1.875,  0.112499997
    674,        1.875,  0.118749999
    675,        1.875,        0.125
    676,        1.875,  0.131249994
    677,        1.875,  0.137500003
    678,        1.875,  0.143749997
    679,   1.85000002, 0.00625000009
    680,   1.85000002, 0.0125000002
    681,   1.85000002, 0.0187500007
    682,   1.85000002, 0.0250000004
    683,   1.85000002,      0.03125
    684,   1.85000002, 0.0375000015
    685,   1.85000002, 0.0437499993
    686,   1.85000002, 0.0500000007
    687,   1.85000002, 0.0562499985
    688,   1.85000002,       0.0625
    689,   1.85000002, 0.0687500015
    690,   1.85000002,  0.075000003
    691,   1.85000002,  0.081249997
    692,   1.85000002, 0.0874999985
    693,   1.85000002,      0.09375
    694,   1.85000002,  0.100000001
    695,   1.85000002,  0.106250003
    696,   1.85000002,  0.112499997
    697,   1.85000002,  0.118749999
    698,   1.85000002,        0.125
    699,   1.85000002,  0.131249994
    700,   1.85000002,  0.137500003
    701,   1.85000002,  0.143749997
    702,   1.82500005, 0.00625000009
    703,   1.82500005, 0.0125000002
    704,   1.82500005, 0.0187500007
    705,   1.82500005, 0.0250000004
    706,   1.82500005,      0.03125
    707,   1.82500005, 0.0375000015
    708,   1.82500005, 0.0437499993
    709,   1.82500005, 0.0500000007
    710,   1.82500005, 0.0562499985
    711,   1.82500005,       0.0625
    712,   1.82500005, 0.0687500015
    713,   1.82500005,  0.075000003
    714,   1.82500005,  0.081249997
    715,   1.82500005, 0.0874999985
    716,   1.82500005,      0.09375
    717,   1.82500005,  0.100000001
    718,   1.82500005,  0.106250003
    719,   1.82500005,  0.112499997
    720,   1.82500005,  0.118749999
    721,   1.82500005,        0.125
    722,   1.82500005,  0.131249994
    723,   1.82500005,  0.137500003
    724,   1.82500005,  0.143749997
    725,   1.79999995, 0.00625000009
    726,   1.79999995, 0.0125000002
    727,   1.79999995, 0.0187500007
    728,   1.79999995, 0.0250000004
    729,   1.79999995,      0.03125
    730,   1.79999995, 0.0375000015
    731,   1.79999995, 0.0437499993
    732,   1.79999995, 0.0500000007
    733,   1.79999995, 0.0562499985
    734,   1.79999995,       0.0625
    735,   1.79999995, 0.0687500015
    736,   1.79999995,  0.075000003
    737,   1.79999995,  0.081249997
    738,   1.79999995, 0.0874999985
    739,   1.79999995,      0.09375
    740,   1.79999995,  0.100000001
    741,   1.79999995,  0.106250003
    742,   1.79999995,  0.112499997
    743,   1.79999995,  0.118749999
    744,   1.79999995,        0.125
    745,   1.79999995,  0.131249994
    746,   1.79999995,  0.137500003
    747,   1.79999995,  0.143749997
    748,   1.77499998, 0.00625000009
    749,   1.77499998, 0.0125000002
    750,   1.77499998, 0.0187500007
    751,   1.77499998, 0.0250000004
    752,   1.77499998,      0.03125
    753,   1.77499998, 0.0375000015
    754,   1.77499998, 0.0437499993
    755,   1.77499998, 0.0500000007
    756,   1.77499998, 0.0562499985
    757,   1.77499998,       0.0625
    758,   1.77499998, 0.0687500015
    759,   1.77499998,  0.075000003
    760,   1.77499998,  0.081249997
    761,   1.77499998, 0.0874999985
    762,   1.77499998,      0.09375
    763,   1.77499998,  0.100000001
    764,   1.77499998,  0.106250003
    765,   1.77499998,  0.112499997
    766,   1.77499998,  0.118749999
    767,   1.77499998,        0.125
    768,   1.77499998,  0.131249994
    769,   1.77499998,  0.137500003
    770,   1.77499998,  0.143749997
    771,         1.75, 0.00625000009
    772,         1.75, 0.0125000002
    773,         1.75, 0.0187500007
    774,         1.75, 0.0250000004
    775,         1.75,      0.03125
    776,         1.75, 0.0375000015
    777,         1.75, 0.0437499993
    778,         1.75, 0.0500000007
    779,         1.75, 0.0562499985
    780,         1.75,       0.0625
    781,         1.75, 0.0687500015
    782,         1.75,  0.075000003
    783,         1.75,  0.081249997
    784,         1.75, 0.0874999985
    785,         1.75,      0.09375
    786,         1.75,  0.100000001
    787,         1.75,  0.106250003
    788,         1.75,  0.112499997
    789,         1.75,  0.118749999
    790,         1.75,        0.125
    791,         1.75,  0.131249994
    792,         1.75,  0.137500003
    793,         1.75,  0.143749997
    794,   1.72500002, 0.00625000009
    795,   1.72500002, 0.0125000002
    796,   1.72500002, 0.0187500007
    797,   1.72500002, 0.0250000004
    798,   1.72500002,      0.03125
    799,   1.72500002, 0.0375000015
    800,   1.72500002, 0.0437499993
    801,   1.72500002, 0.0500000007
    802,   1.72500002, 0.0562499985
    803,   1.72500002,       0.0625
    804,   1.72500002, 0.0687500015
    805,   1.72500002,  0.075000003
    806,   1.72500002,  0.081249997
    807,   1.72500002, 0.0874999985
    808,   1.72500002,      0.09375
    809,   1.72500002,  0.100000001
    810,   1.72500002,  0.106250003
    811,   1.72500002,  0.112499997
    812,   1.72500002,  0.118749999
    813,   1.72500002,        0.125
    814,   1.72500002,  0.131249994
    815,   1.72500002,  0.137500003
    816,   1.72500002,  0.143749997
    817,   1.70000005, 0.00625000009
    818,   1.70000005, 0.0125000002
    819,   1.70000005, 0.0187500007
    820,   1.70000005, 0.0250000004
    821,   1.70000005,      0.03125
    822,   1.70000005, 0.0375000015
    823,   1.70000005, 0.0437499993
    824,   1.70000005, 0.0500000007
    825,   1.70000005, 0.0562499985
    826,   1.70000005,       0.0625
    827,   1.70000005, 0.0687500015
    828,   1.70000005,  0.075000003
    829,   1.70000005,  0.081249997
    830,   1.70000005, 0.0874999985
    831,   1.70000005,      0.09375
    832,   1.70000005,  0.100000001
    833,   1.70000005,  0.106250003
    834,   1.70000005,  0.112499997
    835,   1.70000005,  0.118749999
    836,   1.70000005,        0.125
    837,   1.70000005,  0.131249994
    838,   1.70000005,  0.137500003
    839,   1.70000005,  0.143749997
    840,   1.67499995, 0.00625000009
    841,   1.67499995, 0.0125000002
    842,   1.67499995, 0.0187500007
    843,   1.67499995, 0.0250000004
    844,   1.67499995,      0.03125
    845,   1.67499995, 0.0375000015
    846,   1.67499995, 0.0437499993
    847,   1.67499995, 0.0500000007
    848,   1.67499995, 0.0562499985
    849,   1.67499995,       0.0625
    850,   1.67499995, 0.0687500015
    851,   1.67499995,  0.075000003
    852,   1.67499995,  0.081249997
    853,   1.67499995, 0.0874999985
    854,   1.67499995,      0.09375
    855,   1.67499995,  0.100000001
    856,   1.67499995,  0.106250003
    857,   1.67499995,  0.112499997
    858,   1.67499995,  0.118749999
    859,   1.67499995,        0.125
    860,   1.67499995,  0.131249994
    861,   1.67499995,  0.137500003
    862,   1.67499995,  0.143749997
    863,   1.64999998, 0.00625000009
    864,   1.64999998, 0.0125000002
    865,   1.64999998, 0.0187500007
    866,   1.64999998, 0.0250000004
    867,   1.64999998,      0.03125
    868,   1.64999998, 0.0375000015
    869,   1.64999998, 0.0437499993
    870,   1.64999998, 0.0500000007
    871,   1.64999998, 0.0562499985
    872,   1.64999998,       0.0625
    873,   1.64999998, 0.0687500015
    874,   1.64999998,  0.075000003
    875,   1.64999998,  0.081249997
    876,   1.64999998, 0.0874999985
    877,   1.64999998,      0.09375
    878,   1.64999998,  0.100000001
    879,   1.64999998,  0.106250003
    880,   1.64999998,  0.112499997
    881,   1.64999998,  0.118749999
    882,   1.64999998,        0.125
    883,   1.64999998,  0.131249994
    884,   1.64999998,  0.137500003
    885,   1.64999998,  0.143749997
    886,        1.625, 0.00625000009
    887,        1.625, 0.0125000002
    888,        1.625, 0.0187500007
    889,        1.625, 0.0250000004
    890,        1.625,      0.03125
    891,        1.625, 0.0375000015
    892,        1.625, 0.0437499993
    893,        1.625, 0.0500000007
    894,        1.625, 0.0562499985
    895,        1.625,       0.0625
    896,        1.625, 0.0687500015
    897,        1.625,  0.075000003
    898,        1.625,  0.081249997
    899,        1.625, 0.0874999985
    900,        1.625,      0.09375
    901,        1.625,  0.100000001
    902,        1.625,  0.106250003
    903,        1.625,  0.112499997
    904,        1.625,  0.118749999
    905,        1.625,        0.125
    906,        1.625,  0.131249994
    907,        1.625,  0.137500003
    908,        1.625,  0.143749997
    909,   1.60000002, 0.00625000009
    910,   1.60000002, 0.0125000002
    911,   1.60000002, 0.0187500007
    912,   1.60000002, 0.0250000004
    913,   1.60000002,      0.03125
    914,   1.60000002, 0.0375000015
    915,   1.60000002, 0.0437499993
    916,   1.60000002, 0.0500000007
    917,   1.60000002, 0.0562499985
    918,   1.60000002,       0.0625
    919,   1.60000002, 0.0687500015
    920,   1.60000002,  0.075000003
    921,   1.60000002,  0.081249997
    922,   1.60000002, 0.0874999985
    923,   1.60000002,      0.09375
    924,   1.60000002,  0.100000001
    925,   1.60000002,  0.106250003
    926,   1.60000002,  0.112499997
    927,   1.60000002,  0.118749999
    928,   1.60000002,        0.125
    929,   1.60000002,  0.131249994
    930,   1.60000002,  0.137500003
    931,   1.60000002,  0.143749997
    932,   1.57500005, 0.00625000009
    933,   1.57500005, 0.0125000002
    934,   1.57500005, 0.0187500007
    935,   1.57500005, 0.0250000004
    936,   1.57500005,      0.03125
    937,   1.57500005, 0.0375000015
    938,   1.57500005, 0.0437499993
    939,   1.57500005, 0.0500000007
    940,   1.57500005, 0.0562499985
    941,   1.57500005,       0.0625
    942,   1.57500005, 0.0687500015
    943,   1.57500005,  0.075000003
    944,   1.57500005,  0.081249997
    945,   1.57500005, 0.0874999985
    946,   1.57500005,      0.09375
    947,   1.57500005,  0.100000001
    948,   1.57500005,  0.106250003
    949,   1.57500005,  0.112499997
    950,   1.57500005,  0.118749999
    951,   1.57500005,        0.125
    952,   1.57500005,  0.131249994
    953,   1.57500005,  0.137500003
    954,   1.57500005,  0.143749997
    955,   1.54999995, 0.00625000009
    956,   1.54999995, 0.0125000002
    957,   1.54999995, 0.0187500007
    958,   1.54999995, 0.0250000004
    959,   1.54999995,      0.03125
    960,   1.54999995, 0.0375000015
    961,   1.54999995, 0.0437499993
    962,   1.54999995, 0.0500000007
    963,   1.54999995, 0.0562499985
    964,   1.54999995,       0.0625
    965,   1.54999995, 0.0687500015
    966,   1.54999995,  0.075000003
    967,   1.54999995,  0.081249997
    968,   1.54999995, 0.0874999985
    969,   1.54999995,      0.09375
    970,   1.54999995,  0.100000001
    971,   1.54999995,  0.106250003
    972,   1.54999995,  0.112499997
    973,   1.54999995,  0.118749999
    974,   1.54999995,        0.125
    975,   1.54999995,  0.131249994
    976,   1.54999995,  0.137500003
    977,   1.54999995,  0.143749997
    978,   1.52499998, 0.00625000009
    979,   1.52499998, 0.0125000002
    980,   1.52499998, 0.0187500007
    981,   1.52499998, 0.0250000004
    982,   1.52499998,      0.03125
    983,   1.52499998, 0.0375000015
    984,   1.52499998, 0.0437499993
    985,   1.52499998, 0.0500000007
    986,   1.52499998, 0.0562499985
    987,   1.52499998,       0.0625
    988,   1.52499998, 0.0687500015
    989,   1.52499998,  0.075000003
    990,   1.52499998,  0.081249997
    991,   1.52499998, 0.0874999985
    992,   1.52499998,      0.09375
    993,   1.52499998,  0.100000001
    994,   1.52499998,  0.106250003
    995,   1.52499998,  0.112499997
    996,   1.52499998,  0.118749999
    997,   1.52499998,        0.125
    998,   1.52499998,  0.131249994
    999,   1.52499998,  0.137500003
   1000,   1.52499998,  0.143749997
   1001,          1.5, 0.00625000009
   1002,          1.5, 0.0125000002
   1003,          1.5, 0.0187500007
   1004,          1.5, 0.0250000004
   1005,          1.5,      0.03125
   1006,          1.5, 0.0375000015
   1007,          1.5, 0.0437499993
   1008,          1.5, 0.0500000007
   1009,          1.5, 0.0562499985
   1010,          1.5,       0.0625
   1011,          1.5, 0.0687500015
   1012,          1.5,  0.075000003
   1013,          1.5,  0.081249997
   1014,          1.5, 0.0874999985
   1015,          1.5,      0.09375
   1016,          1.5,  0.100000001
   1017,          1.5,  0.106250003
   1018,          1.5,  0.112499997
   1019,          1.5,  0.118749999
   1020,          1.5,        0.125
   1021,          1.5,  0.131249994
   1022,          1.5,  0.137500003
   1023,          1.5,  0.143749997
   1024,   1.47500002, 0.00625000009
   1025,   1.47500002, 0.0125000002
   1026,   1.47500002, 0.0187500007
   1027,   1.47500002, 0.0250000004
   1028,   1.47500002,      0.03125
   1029,   1.47500002, 0.0375000015
   1030,   1.47500002, 0.0437499993
   1031,   1.47500002, 0.0500000007
   1032,   1.47500002, 0.0562499985
   1033,   1.47500002,       0.0625
   1034,   1.47500002, 0.0687500015
   1035,   1.47500002,  0.075000003
   1036,   1.47500002,  0.081249997
   1037,   1.47500002, 0.0874999985
   1038,   1.47500002,      0.09375
   1039,   1.47500002,  0.100000001
   1040,   1.47500002,  0.106250003
   1041,   1.47500002,  0.112499997
   1042,   1.47500002,  0.118749999
   1043,   1.47500002,        0.125
   1044,   1.47500002,  0.131249994
   1045,   1.47500002,  0.137500003
   1046,   1.47500002,  0.143749997
   1047,   1.45000005, 0.00625000009
   1048,   1.45000005, 0.0125000002
   1049,   1.45000005, 0.0187500007
   1050,   1.45000005, 0.0250000004
   1051,   1.45000005,      0.03125
   1052,   1.45000005, 0.0375000015
   1053,   1.45000005, 0.0437499993
   1054,   1.45000005, 0.0500000007
   1055,   1.45000005, 0.0562499985
   1056,   1.45000005,       0.0625
   1057,   1.45000005, 0.0687500015
   1058,   1.45000005,  0.075000003
   1059,   1.45000005,  0.081249997
   1060,   1.45000005, 0.0874999985
   1061,   1.45000005,      0.09375
   1062,   1.45000005,  0.100000001
   1063,   1.45000005,  0.106250003
   1064,   1.45000005,  0.112499997
   1065,   1.45000005,  0.118749999
   1066,   1.45000005,        0.125
   1067,   1.45000005,  0.131249994
   1068,   1.45000005,  0.137500003
   1069,   1.45000005,  0.143749997
   1070,   1.42499995, 0.00625000009
   1071,   1.42499995, 0.0125000002
   1072,   1.42499995, 0.0187500007
   1073,   1.42499995, 0.0250000004
   1074,   1.42499995,      0.03125
   1075,   1.42499995, 0.0375000015
   1076,   1.42499995, 0.0437499993
   1077,   1.42499995, 0.0500000007
   1078,   1.42499995, 0.0562499985
   1079,   1.42499995,       0.0625
   1080,   1.42499995, 0.0687500015
   1081,   1.42499995,  0.075000003
   1082,   1.42499995,  0.081249997
   1083,   1.42499995, 0.0874999985
   1084,   1.42499995,      0.09375
   1085,   1.42499995,  0.100000001
   1086,   1.42499995,  0.106250003
   1087,   1.42499995,  0.112499997
   1088,   1.42499995,  0.118749999
   1089,   1.42499995,        0.125
   1090,   1.42499995,  0.131249994
   1091,   1.42499995,  0.137500003
   1092,   1.42499995,  0.143749997
   1093,   1.39999998, 0.00625000009
   1094,   1.39999998, 0.0125000002
   1095,   1.39999998, 0.0187500007
   1096,   1.39999998, 0.0250000004
   1097,   1.39999998,      0.03125
   1098,   1.39999998, 0.0375000015
   1099,   1.39999998, 0.0437499993
   1100,   1.39999998, 0.0500000007
   1101,   1.39999998, 0.0562499985
   1102,   1.39999998,       0.0625
   1103,   1.39999998, 0.0687500015
   1104,   1.39999998,  0.075000003
   1105,   1.39999998,  0.081249997
   1106,   1.39999998, 0.0874999985
   1107,   1.39999998,      0.09375
   1108,   1.39999998,  0.100000001
   1109,   1.39999998,  0.106250003
   1110,   1.39999998,  0.112499997
   1111,   1.39999998,  0.118749999
   1112,   1.39999998,        0.125
   1113,   1.39999998,  0.131249994
   1114,   1.39999998,  0.137500003
   1115,   1.39999998,  0.143749997
   1116,        1.375, 0.00625000009
   1117,        1.375, 0.0125000002
   1118,        1.375, 0.0187500007
   1119,        1.375, 0.0250000004
   1120,        1.375,      0.03125
   1121,        1.375, 0.0375000015
   1122,        1.375, 0.0437499993
   1123,        1.375, 0.0500000007
   1124,        1.375, 0.0562499985
   1125,        1.375,       0.0625
   1126,        1.375, 0.0687500015
   1127,        1.375,  0.075000003
   1128,        1.375,  0.081249997
   1129,        1.375, 0.0874999985
   1130,        1.375,      0.09375
   1131,        1.375,  0.100000001
   1132,        1.375,  0.106250003
   1133,        1.375,  0.112499997
   1134,        1.375,  0.118749999
   1135,        1.375,        0.125
   1136,        1.375,  0.131249994
   1137,        1.375,  0.137500003
   1138,        1.375,  0.143749997
   1139,   1.35000002, 0.00625000009
   1140,   1.35000002, 0.0125000002
   1141,   1.35000002, 0.0187500007
   1142,   1.35000002, 0.0250000004
   1143,   1.35000002,      0.03125
   1144,   1.35000002, 0.0375000015
   1145,   1.35000002, 0.0437499993
   1146,   1.35000002, 0.0500000007
   1147,   1.35000002, 0.0562499985
   1148,   1.35000002,       0.0625
   1149,   1.35000002, 0.0687500015
   1150,   1.35000002,  0.075000003
   1151,   1.35000002,  0.081249997
   1152,   1.35000002, 0.0874999985
   1153,   1.35000002,      0.09375
   1154,   1.35000002,  0.100000001
   1155,   1.35000002,  0.106250003
   1156,   1.35000002,  0.112499997
   1157,   1.35000002,  0.118749999
   1158,   1.35000002,        0.125
   1159,   1.35000002,  0.131249994
   1160,   1.35000002,  0.137500003
   1161,   1.35000002,  0.143749997
   1162,   1.32500005, 0.00625000009
   1163,   1.32500005, 0.0125000002
   1164,   1.32500005, 0.0187500007
   1165,   1.32500005, 0.0250000004
   1166,   1.32500005,      0.03125
   1167,   1.32500005, 0.0375000015
   1168,   1.32500005, 0.0437499993
   1169,   1.32500005, 0.0500000007
   1170,   1.32500005, 0.0562499985
   1171,   1.32500005,       0.0625
   1172,   1.32500005, 0.0687500015
   1173,   1.32500005,  0.075000003
   1174,   1.32500005,  0.081249997
   1175,   1.32500005, 0.0874999985
   1176,   1.32500005,      0.09375
   1177,   1.32500005,  0.100000001
   1178,   1.32500005,  0.106250003
   1179,   1.32500005,  0.112499997
   1180,   1.32500005,  0.118749999
   1181,   1.32500005,        0.125
   1182,   1.32500005,  0.131249994
   1183,   1.32500005,  0.137500003
   1184,   1.32500005,  0.143749997
   1185,   1.29999995, 0.00625000009
   1186,   1.29999995, 0.0125000002
   1187,   1.29999995, 0.0187500007
   1188,   1.29999995, 0.0250000004
   1189,   1.29999995,      0.03125
   1190,   1.29999995, 0.0375000015
   1191,   1.29999995, 0.0437499993
   1192,   1.29999995, 0.0500000007
   1193,   1.29999995, 0.0562499985
   1194,   1.29999995,       0.0625
   1195,   1.29999995, 0.0687500015
   1196,   1.29999995,  0.075000003
   1197,   1.29999995,  0.081249997
   1198,   1.29999995, 0.0874999985
   1199,   1.29999995,      0.09375
   1200,   1.29999995,  0.100000001
   1201,   1.29999995,  0.106250003
   1202,   1.29999995,  0.112499997
   1203,   1.29999995,  0.118749999
   1204,   1.29999995,        0.125
   1205,   1.29999995,  0.131249994
   1206,   1.29999995,  0.137500003
   1207,   1.29999995,  0.143749997
   1208,   1.27499998, 0.00625000009
   1209,   1.27499998, 0.0125000002
   1210,   1.27499998, 0.0187500007
   1211,   1.27499998, 0.0250000004
   1212,   1.27499998,      0.03125
   1213,   1.27499998, 0.0375000015
   1214,   1.27499998, 0.0437499993
   1215,   1.27499998, 0.0500000007
   1216,   1.27499998, 0.0562499985
   1217,   1.27499998,       0.0625
   1218,   1.27499998, 0.0687500015
   1219,   1.27499998,  0.075000003
   1220,   1.27499998,  0.081249997
   1221,   1.27499998, 0.0874999985
   1222,   1.27499998,      0.09375
   1223,   1.27499998,  0.100000001
   1224,   1.27499998,  0.106250003
   1225,   1.27499998,  0.112499997
   1226,   1.27499998,  0.118749999
   1227,   1.27499998,        0.125
   1228,   1.27499998,  0.131249994
   1229,   1.27499998,  0.137500003
   1230,   1.27499998,  0.143749997
   1231,         1.25, 0.00625000009
   1232,         1.25, 0.0125000002
   1233,         1.25, 0.0187500007
   1234,         1.25, 0.0250000004
   1235,         1.25,      0.03125
   1236,         1.25, 0.0375000015
   1237,         1.25, 0.0437499993
   1238,         1.25, 0.0500000007
   1239,         1.25, 0.0562499985
   1240,         1.25,       0.0625
   1241,         1.25, 0.0687500015
   1242,         1.25,  0.075000003
   1243,         1.25,  0.081249997
   1244,         1.25, 0.0874999985
   1245,         1.25,      0.09375
   1246,         1.25,  0.100000001
   1247,         1.25,  0.106250003
   1248,         1.25,  0.112499997
   1249,         1.25,  0.118749999
   1250,         1.25,        0.125
   1251,         1.25,  0.131249994
   1252,         1.25,  0.137500003
   1253,         1.25,  0.143749997
   1254,   1.22500002, 0.00625000009
   1255,   1.22500002, 0.0125000002
   1256,   1.22500002, 0.0187500007
   1257,   1.22500002, 0.0250000004
   1258,   1.22500002,      0.03125
   1259,   1.22500002, 0.0375000015
   1260,   1.22500002, 0.0437499993
   1261,   1.22500002, 0.0500000007
   1262,   1.22500002, 0.0562499985
   1263,   1.22500002,       0.0625
   1264,   1.22500002, 0.0687500015
   1265,   1.22500002,  0.075000003
   1266,   1.22500002,  0.081249997
   1267,   1.22500002, 0.0874999985
   1268,   1.22500002,      0.09375
   1269,   1.22500002,  0.100000001
   1270,   1.22500002,  0.106250003
   1271,   1.22500002,  0.112499997
   1272,   1.22500002,  0.118749999
   1273,   1.22500002,        0.125
   1274,   1.22500002,  0.131249994
   1275,   1.22500002,  0.137500003
   1276,   1.22500002,  0.143749997
   1277,   1.20000005, 0.00625000009
   1278,   1.20000005, 0.0125000002
   1279,   1.20000005, 0.0187500007
   1280,   1.20000005, 0.0250000004
   1281,   1.20000005,      0.03125
   1282,   1.20000005, 0.0375000015
   1283,   1.20000005, 0.0437499993
   1284,   1.20000005, 0.0500000007
   1285,   1.20000005, 0.0562499985
   1286,   1.20000005,       0.0625
   1287,   1.20000005, 0.0687500015
   1288,   1.20000005,  0.075000003
   1289,   1.20000005,  0.081249997
   1290,   1.20000005, 0.0874999985
   1291,   1.20000005,      0.09375
   1292,   1.20000005,  0.100000001
   1293,   1.20000005,  0.106250003
   1294,   1.20000005,  0.112499997
   1295,   1.20000005,  0.118749999
   1296,   1.20000005,        0.125
   1297,   1.20000005,  0.131249994
   1298,   1.20000005,  0.137500003
   1299,   1.20000005,  0.143749997
   1300,   1.17499995, 0.00625000009
   1301,   1.17499995, 0.0125000002
   1302,   1.17499995, 0.0187500007
   1303,   1.17499995, 0.0250000004
   1304,   1.17499995,      0.03125
   1305,   1.17499995, 0.0375000015
   1306,   1.17499995, 0.0437499993
   1307,   1.17499995, 0.0500000007
   1308,   1.17499995, 0.0562499985
   1309,   1.17499995,       0.0625
   1310,   1.17499995, 0.0687500015
   1311,   1.17499995,  0.075000003
   1312,   1.17499995,  0.081249997
   1313,   1.17499995, 0.0874999985
   1314,   1.17499995,      0.09375
   1315,   1.17499995,  0.100000001
   1316,   1.17499995,  0.106250003
   1317,   1.17499995,  0.112499997
   1318,   1.17499995,  0.118749999
   1319,   1.17499995,        0.125
   1320,   1.17499995,  0.131249994
   1321,   1.17499995,  0.137500003
   1322,   1.17499995,  0.143749997
   1323,   1.14999998, 0.00625000009
   1324,   1.14999998, 0.0125000002
   1325,   1.14999998, 0.0187500007
   1326,   1.14999998, 0.0250000004
   1327,   1.14999998,      0.03125
   1328,   1.14999998, 0.0375000015
   1329,   1.14999998, 0.0437499993
   1330,   1.14999998, 0.0500000007
   1331,   1.14999998, 0.0562499985
   1332,   1.14999998,       0.0625
   1333,   1.14999998, 0.0687500015
   1334,   1.14999998,  0.075000003
   1335,   1.14999998,  0.081249997
   1336,   1.14999998, 0.0874999985
   1337,   1.14999998,      0.09375
   1338,   1.14999998,  0.100000001
   1339,   1.14999998,  0.106250003
   1340,   1.14999998,  0.112499997
   1341,   1.14999998,  0.118749999
   1342,   1.14999998,        0.125
   1343,   1.14999998,  0.131249994
   1344,   1.14999998,  0.137500003
   1345,   1.14999998,  0.143749997
   1346,        1.125, 0.00625000009
   1347,        1.125, 0.0125000002
   1348,        1.125, 0.0187500007
   1349,        1.125, 0.0250000004
   1350,        1.125,      0.03125
   1351,        1.125, 0.0375000015
   1352,        1.125, 0.0437499993
   1353,        1.125, 0.0500000007
   1354,        1.125, 0.0562499985
   1355,        1.125,       0.0625
   1356,        1.125, 0.0687500015
   1357,        1.125,  0.075000003
   1358,        1.125,  0.081249997
   1359,        1.125, 0.0874999985
   1360,        1.125,      0.09375
   1361,        1.125,  0.100000001
   1362,        1.125,  0.106250003
   1363,        1.125,  0.112499997
   1364,        1.125,  0.118749999
   1365,        1.125,        0.125
   1366,        1.125,  0.131249994
   1367,        1.125,  0.137500003
   1368,        1.125,  0.143749997
   1369,   1.10000002, 0.00625000009
   1370,   1.10000002, 0.0125000002
   1371,   1.10000002, 0.0187500007
   1372,   1.10000002, 0.0250000004
   1373,   1.10000002,      0.03125
   1374,   1.10000002, 0.0375000015
   1375,   1.10000002, 0.0437499993
   1376,   1.10000002, 0.0500000007
   1377,   1.10000002, 0.0562499985
   1378,   1.10000002,       0.0625
   1379,   1.10000002, 0.0687500015
   1380,   1.10000002,  0.075000003
   1381,   1.10000002,  0.081249997
   1382,   1.10000002, 0.0874999985
   1383,   1.10000002,      0.09375
   1384,   1.10000002,  0.100000001
   1385,   1.10000002,  0.106250003
   1386,   1.10000002,  0.112499997
   1387,   1.10000002,  0.118749999
   1388,   1.10000002,        0.125
   1389,   1.10000002,  0.131249994
   1390,   1.10000002,  0.137500003
   1391,   1.10000002,  0.143749997
   1392,   1.07500005, 0.00625000009
   1393,   1.07500005, 0.0125000002
   1394,   1.07500005, 0.0187500007
   1395,   1.07500005, 0.0250000004
   1396,   1.07500005,      0.03125
   1397,   1.07500005, 0.0375000015
   1398,   1.07500005, 0.0437499993
   1399,   1.07500005, 0.0500000007
   1400,   1.07500005, 0.0562499985
   1401,   1.07500005,       0.0625
   1402,   1.07500005, 0.0687500015
   1403,   1.07500005,  0.075000003
   1404,   1.07500005,  0.081249997
   1405,   1.07500005, 0.0874999985
   1406,   1.07500005,      0.09375
   1407,   1.07500005,  0.100000001
   1408,   1.07500005,  0.106250003
   1409,   1.07500005,  0.112499997
   1410,   1.07500005,  0.118749999
   1411,   1.07500005,        0.125
   1412,   1.07500005,  0.131249994
   1413,   1.07500005,  0.137500003
   1414,   1.07500005,  0.143749997
   1415,   1.04999995, 0.00625000009
   1416,   1.04999995, 0.0125000002
   1417,   1.04999995, 0.0187500007
   1418,   1.04999995, 0.0250000004
   1419,   1.04999995,      0.03125
   1420,   1.04999995, 0.0375000015
   1421,   1.04999995, 0.0437499993
   1422,   1.04999995, 0.0500000007
   1423,   1.04999995, 0.0562499985
   1424,   1.04999995,       0.0625
   1425,   1.04999995, 0.0687500015
   1426,   1.04999995,  0.075000003
   1427,   1.04999995,  0.081249997
   1428,   1.04999995, 0.0874999985
   1429,   1.04999995,      0.09375
   1430,   1.04999995,  0.100000001
   1431,   1.04999995,  0.106250003
   1432,   1.04999995,  0.112499997
   1433,   1.04999995,  0.118749999
   1434,   1.04999995,        0.125
   1435,   1.04999995,  0.131249994
   1436,   1.04999995,  0.137500003
   1437,   1.04999995,  0.143749997
   1438,   1.02499998, 0.00625000009
   1439,   1.02499998, 0.0125000002
   1440,   1.02499998, 0.0187500007
   1441,   1.02499998, 0.0250000004
   1442,   1.02499998,      0.03125
   1443,   1.02499998, 0.0375000015
   1444,   1.02499998, 0.0437499993
   1445,   1.02499998, 0.0500000007
   1446,   1.02499998, 0.0562499985
   1447,   1.02499998,       0.0625
   1448,   1.02499998, 0.0687500015
   1449,   1.02499998,  0.075000003
   1450,   1.02499998,  0.081249997
   1451,   1.02499998, 0.0874999985
   1452,   1.02499998,      0.09375
   1453,   1.02499998,  0.100000001
   1454,   1.02499998,  0.106250003
   1455,   1.02499998,  0.112499997
   1456,   1.02499998,  0.118749999
   1457,   1.02499998,        0.125
   1458,   1.02499998,  0.131249994
   1459,   1.02499998,  0.137500003
   1460,   1.02499998,  0.143749997
   1461,  0.975000024, 0.00625000009
   1462,  0.975000024, 0.0125000002
   1463,  0.975000024, 0.0187500007
   1464,  0.975000024, 0.0250000004
   1465,  0.975000024,      0.03125
   1466,  0.975000024, 0.0375000015
   1467,  0.975000024, 0.0437499993
   1468,  0.975000024, 0.0500000007
   1469,  0.975000024, 0.0562499985
   1470,  0.975000024,       0.0625
   1471,  0.975000024, 0.0687500015
   1472,  0.975000024,  0.075000003
   1473,  0.975000024,  0.081249997
   1474,  0.975000024, 0.0874999985
   1475,  0.975000024,      0.09375
   1476,  0.975000024,  0.100000001
   1477,  0.975000024,  0.106250003
   1478,  0.975000024,  0.112499997
   1479,  0.975000024,  0.118749999
   1480,  0.975000024,        0.125
   1481,  0.975000024,  0.131249994
   1482,  0.975000024,  0.137500003
   1483,  0.975000024,  0.143749997
   1484,  0.949999988, 0.00625000009
   1485,  0.949999988, 0.0125000002
   1486,  0.949999988, 0.0187500007
   1487,  0.949999988, 0.0250000004
   1488,  0.949999988,      0.03125
   1489,  0.949999988, 0.0375000015
   1490,  0.949999988, 0.0437499993
   1491,  0.949999988, 0.0500000007
   1492,  0.949999988, 0.0562499985
   1493,  0.949999988,       0.0625
   1494,  0.949999988, 0.0687500015
   1495,  0.949999988,  0.075000003
   1496,  0.949999988,  0.081249997
   1497,  0.949999988, 0.0874999985
   1498,  0.949999988,      0.09375
   1499,  0.949999988,  0.100000001
   1500,  0.949999988,  0.106250003
   1501,  0.949999988,  0.112499997
   1502,  0.949999988,  0.118749999
   1503,  0.949999988,        0.125
   1504,  0.949999988,  0.131249994
   1505,  0.949999988,  0.137500003
   1506,  0.949999988,  0.143749997
   1507,  0.925000012, 0.00625000009
   1508,  0.925000012, 0.0125000002
   1509,  0.925000012, 0.0187500007
   1510,  0.925000012, 0.0250000004
   1511,  0.925000012,      0.03125
   1512,  0.925000012, 0.0375000015
   1513,  0.925000012, 0.0437499993
   1514,  0.925000012, 0.0500000007
   1515,  0.925000012, 0.0562499985
   1516,  0.925000012,       0.0625
   1517,  0.925000012, 0.0687500015
   1518,  0.925000012,  0.075000003
   1519,  0.925000012,  0.081249997
   1520,  0.925000012, 0.0874999985
   1521,  0.925000012,      0.09375
   1522,  0.925000012,  0.100000001
   1523,  0.925000012,  0.106250003
   1524,  0.925000012,  0.112499997
   1525,  0.925000012,  0.118749999
   1526,  0.925000012,        0.125
   1527,  0.925000012,  0.131249994
   1528,  0.925000012,  0.137500003
   1529,  0.925000012,  0.143749997
   1530,  0.899999976, 0.00625000009
   1531,  0.899999976, 0.0125000002
   1532,  0.899999976, 0.0187500007
   1533,  0.899999976, 0.0250000004
   1534,  0.899999976,      0.03125
   1535,  0.899999976, 0.0375000015
   1536,  0.899999976, 0.0437499993
   1537,  0.899999976, 0.0500000007
   1538,  0.899999976, 0.0562499985
   1539,  0.899999976,       0.0625
   1540,  0.899999976, 0.0687500015
   1541,  0.899999976,  0.075000003
   1542,  0.899999976,  0.081249997
   1543,  0.899999976, 0.0874999985
   1544,  0.899999976,      0.09375
   1545,  0.899999976,  0.100000001
   1546,  0.899999976,  0.106250003
   1547,  0.899999976,  0.112499997
   1548,  0.899999976,  0.118749999
   1549,  0.899999976,        0.125
   1550,  0.899999976,  0.131249994
   1551,  0.899999976,  0.137500003
   1552,  0.899999976,  0.143749997
   1553,        0.875, 0.00625000009
   1554,        0.875, 0.0125000002
   1555,        0.875, 0.0187500007
   1556,        0.875, 0.0250000004
   1557,        0.875,      0.03125
   1558,        0.875, 0.0375000015
   1559,        0.875, 0.0437499993
   1560,        0.875, 0.0500000007
   1561,        0.875, 0.0562499985
   1562,        0.875,       0.0625
   1563,        0.875, 0.0687500015
   1564,        0.875,  0.075000003
   1565,        0.875,  0.081249997
   1566,        0.875, 0.0874999985
   1567,        0.875,      0.09375
   1568,        0.875,  0.100000001
   1569,        0.875,  0.106250003
   1570,        0.875,  0.112499997
   1571,        0.875,  0.118749999
   1572,        0.875,        0.125
   1573,        0.875,  0.131249994
   1574,        0.875,  0.137500003
   1575,        0.875,  0.143749997
   1576,  0.850000024, 0.00625000009
   1577,  0.850000024, 0.0125000002
   1578,  0.850000024, 0.0187500007
   1579,  0.850000024, 0.0250000004
   1580,  0.850000024,      0.03125
   1581,  0.850000024, 0.0375000015
   1582,  0.850000024, 0.0437499993
   1583,  0.850000024, 0.0500000007
   1584,  0.850000024, 0.0562499985
   1585,  0.850000024,       0.0625
   1586,  0.850000024, 0.0687500015
   1587,  0.850000024,  0.075000003
   1588,  0.850000024,  0.081249997
   1589,  0.850000024, 0.0874999985
   1590,  0.850000024,      0.09375
   1591,  0.850000024,  0.100000001
   1592,  0.850000024,  0.106250003
   1593,  0.850000024,  0.112499997
   1594,  0.850000024,  0.118749999
   1595,  0.850000024,        0.125
   1596,  0.850000024,  0.131249994
   1597,  0.850000024,  0.137500003
   1598,  0.850000024,  0.143749997
   1599,  0.824999988, 0.00625000009
   1600,  0.824999988, 0.0125000002
   1601,  0.824999988, 0.0187500007
   1602,  0.824999988, 0.0250000004
   1603,  0.824999988,      0.03125
   1604,  0.824999988, 0.0375000015
   1605,  0.824999988, 0.0437499993
   1606,  0.824999988, 0.0500000007
   1607,  0.824999988, 0.0562499985
   1608,  0.824999988,       0.0625
   1609,  0.824999988, 0.0687500015
   1610,  0.824999988,  0.075000003
   1611,  0.824999988,  0.081249997
   1612,  0.824999988, 0.0874999985
   1613,  0.824999988,      0.09375
   1614,  0.824999988,  0.100000001
   1615,  0.824999988,  0.106250003
   1616,  0.824999988,  0.112499997
   1617,  0.824999988,  0.118749999
   1618,  0.824999988,        0.125
   1619,  0.824999988,  0.131249994
   1620,  0.824999988,  0.137500003
   1621,  0.824999988,  0.143749997
   1622,  0.800000012, 0.00625000009
   1623,  0.800000012, 0.0125000002
   1624,  0.800000012, 0.0187500007
   1625,  0.800000012, 0.0250000004
   1626,  0.800000012,      0.03125
   1627,  0.800000012, 0.0375000015
   1628,  0.800000012, 0.0437499993
   1629,  0.800000012, 0.0500000007
   1630,  0.800000012, 0.0562499985
   1631,  0.800000012,       0.0625
   1632,  0.800000012, 0.0687500015
   1633,  0.800000012,  0.075000003
   1634,  0.800000012,  0.081249997
   1635,  0.800000012, 0.0874999985
   1636,  0.800000012,      0.09375
   1637,  0.800000012,  0.100000001
   1638,  0.800000012,  0.106250003
   1639,  0.800000012,  0.112499997
   1640,  0.800000012,  0.118749999
   1641,  0.800000012,        0.125
   1642,  0.800000012,  0.131249994
   1643,  0.800000012,  0.137500003
   1644,  0.800000012,  0.143749997
   1645,  0.774999976, 0.00625000009
   1646,  0.774999976, 0.0125000002
   1647,  0.774999976, 0.0187500007
   1648,  0.774999976, 0.0250000004
   1649,  0.774999976,      0.03125
   1650,  0.774999976, 0.0375000015
   1651,  0.774999976, 0.0437499993
   1652,  0.774999976, 0.0500000007
   1653,  0.774999976, 0.0562499985
   1654,  0.774999976,       0.0625
   1655,  0.774999976, 0.0687500015
   1656,  0.774999976,  0.075000003
   1657,  0.774999976,  0.081249997
   1658,  0.774999976, 0.0874999985
   1659,  0.774999976,      0.09375
   1660,  0.774999976,  0.100000001
   1661,  0.774999976,  0.106250003
   1662,  0.774999976,  0.112499997
   1663,  0.774999976,  0.118749999
   1664,  0.774999976,        0.125
   1665,  0.774999976,  0.131249994
   1666,  0.774999976,  0.137500003
   1667,  0.774999976,  0.143749997
   1668,         0.75, 0.00625000009
   1669,         0.75, 0.0125000002
   1670,         0.75, 0.0187500007
   1671,         0.75, 0.0250000004
   1672,         0.75,      0.03125
   1673,         0.75, 0.0375000015
   1674,         0.75, 0.0437499993
   1675,         0.75, 0.0500000007
   1676,         0.75, 0.0562499985
   1677,         0.75,       0.0625
   1678,         0.75, 0.0687500015
   1679,         0.75,  0.075000003
   1680,         0.75,  0.081249997
   1681,         0.75, 0.0874999985
   1682,         0.75,      0.09375
   1683,         0.75,  0.100000001
   1684,         0.75,  0.106250003
   1685,         0.75,  0.112499997
   1686,         0.75,  0.118749999
   1687,         0.75,        0.125
   1688,         0.75,  0.131249994
   1689,         0.75,  0.137500003
   1690,         0.75,  0.143749997
   1691,  0.725000024, 0.00625000009
   1692,  0.725000024, 0.0125000002
   1693,  0.725000024, 0.0187500007
   1694,  0.725000024, 0.0250000004
   1695,  0.725000024,      0.03125
   1696,  0.725000024, 0.0375000015
   1697,  0.725000024, 0.0437499993
   1698,  0.725000024, 0.0500000007
   1699,  0.725000024, 0.0562499985
   1700,  0.725000024,       0.0625
   1701,  0.725000024, 0.0687500015
   1702,  0.725000024,  0.075000003
   1703,  0.725000024,  0.081249997
   1704,  0.725000024, 0.0874999985
   1705,  0.725000024,      0.09375
   1706,  0.725000024,  0.100000001
   1707,  0.725000024,  0.106250003
   1708,  0.725000024,  0.112499997
   1709,  0.725000024,  0.118749999
   1710,  0.725000024,        0.125
   1711,  0.725000024,  0.131249994
   1712,  0.725000024,  0.137500003
   1713,  0.725000024,  0.143749997
   1714,  0.699999988, 0.00625000009
   1715,  0.699999988, 0.0125000002
   1716,  0.699999988, 0.0187500007
   1717,  0.699999988, 0.0250000004
   1718,  0.699999988,      0.03125
   1719,  0.699999988, 0.0375000015
   1720,  0.699999988, 0.0437499993
   1721,  0.699999988, 0.0500000007
   1722,  0.699999988, 0.0562499985
   1723,  0.699999988,       0.0625
   1724,  0.699999988, 0.0687500015
   1725,  0.699999988,  0.075000003
   1726,  0.699999988,  0.081249997
   1727,  0.699999988, 0.0874999985
   1728,  0.699999988,      0.09375
   1729,  0.699999988,  0.100000001
   1730,  0.699999988,  0.106250003
   1731,  0.699999988,  0.112499997
   1732,  0.699999988,  0.118749999
   1733,  0.699999988,        0.125
   1734,  0.699999988,  0.131249994
   1735,  0.699999988,  0.137500003
   1736,  0.699999988,  0.143749997
   1737,  0.675000012, 0.00625000009
   1738,  0.675000012, 0.0125000002
   1739,  0.675000012, 0.0187500007
   1740,  0.675000012, 0.0250000004
   1741,  0.675000012,      0.03125
   1742,  0.675000012, 0.0375000015
   1743,  0.675000012, 0.0437499993
   1744,  0.675000012, 0.0500000007
   1745,  0.675000012, 0.0562499985
   1746,  0.675000012,       0.0625
   1747,  0.675000012, 0.0687500015
   1748,  0.675000012,  0.075000003
   1749,  0.675000012,  0.081249997
   1750,  0.675000012, 0.0874999985
   1751,  0.675000012,      0.09375
   1752,  0.675000012,  0.100000001
   1753,  0.675000012,  0.106250003
   1754,  0.675000012,  0.112499997
   1755,  0.675000012,  0.118749999
   1756,  0.675000012,        0.125
   1757,  0.675000012,  0.131249994
   1758,  0.675000012,  0.137500003
   1759,  0.675000012,  0.143749997
   1760,  0.649999976, 0.00625000009
   1761,  0.649999976, 0.0125000002
   1762,  0.649999976, 0.0187500007
   1763,  0.649999976, 0.0250000004
   1764,  0.649999976,      0.03125
   1765,  0.649999976, 0.0375000015
   1766,  0.649999976, 0.0437499993
   1767,  0.649999976, 0.0500000007
   1768,  0.649999976, 0.0562499985
   1769,  0.649999976,       0.0625
   1770,  0.649999976, 0.0687500015
   1771,  0.649999976,  0.075000003
   1772,  0.649999976,  0.081249997
   1773,  0.649999976, 0.0874999985
   1774,  0.649999976,      0.09375
   1775,  0.649999976,  0.100000001
   1776,  0.649999976,  0.106250003
   1777,  0.649999976,  0.112499997
   1778,  0.649999976,  0.118749999
   1779,  0.649999976,        0.125
   1780,  0.649999976,  0.131249994
   1781,  0.649999976,  0.137500003
   1782,  0.649999976,  0.143749997
   1783,        0.625, 0.00625000009
   1784,        0.625, 0.0125000002
   1785,        0.625, 0.0187500007
   1786,        0.625, 0.0250000004
   1787,        0.625,      0.03125
   1788,        0.625, 0.0375000015
   1789,        0.625, 0.0437499993
   1790,        0.625, 0.0500000007
   1791,        0.625, 0.0562499985
   1792,        0.625,       0.0625
   1793,        0.625, 0.0687500015
   1794,        0.625,  0.075000003
   1795,        0.625,  0.081249997
   1796,        0.625, 0.0874999985
   1797,        0.625,      0.09375
   1798,        0.625,  0.100000001
   1799,        0.625,  0.106250003
   1800,        0.625,  0.112499997
   1801,        0.625,  0.118749999
   1802,        0.625,        0.125
   1803,        0.625,  0.131249994
   1804,        0.625,  0.137500003
   1805,        0.625,  0.143749997
   1806,  0.600000024, 0.00625000009
   1807,  0.600000024, 0.0125000002
   1808,  0.600000024, 0.0187500007
   1809,  0.600000024, 0.0250000004
   1810,  0.600000024,      0.03125
   1811,  0.600000024, 0.0375000015
   1812,  0.600000024, 0.0437499993
   1813,  0.600000024, 0.0500000007
   1814,  0.600000024, 0.0562499985
   1815,  0.600000024,       0.0625
   1816,  0.600000024, 0.0687500015
   1817,  0.600000024,  0.075000003
   1818,  0.600000024,  0.081249997
   1819,  0.600000024, 0.0874999985
   1820,  0.600000024,      0.09375
   1821,  0.600000024,  0.100000001
   1822,  0.600000024,  0.106250003
   1823,  0.600000024,  0.112499997
   1824,  0.600000024,  0.118749999
   1825,  0.600000024,        0.125
   1826,  0.600000024,  0.131249994
   1827,  0.600000024,  0.137500003
   1828,  0.600000024,  0.143749997
   1829,  0.574999988, 0.00625000009
   1830,  0.574999988, 0.0125000002
   1831,  0.574999988, 0.0187500007
   1832,  0.574999988, 0.0250000004
   1833,  0.574999988,      0.03125
   1834,  0.574999988, 0.0375000015
   1835,  0.574999988, 0.0437499993
   1836,  0.574999988, 0.0500000007
   1837,  0.574999988, 0.0562499985
   1838,  0.574999988,       0.0625
   1839,  0.574999988, 0.0687500015
   1840,  0.574999988,  0.075000003
   1841,  0.574999988,  0.081249997
   1842,  0.574999988, 0.0874999985
   1843,  0.574999988,      0.09375
   1844,  0.574999988,  0.100000001
   1845,  0.574999988,  0.106250003
   1846,  0.574999988,  0.112499997
   1847,  0.574999988,  0.118749999
   1848,  0.574999988,        0.125
   1849,  0.574999988,  0.131249994
   1850,  0.574999988,  0.137500003
   1851,  0.574999988,  0.143749997
   1852,  0.550000012, 0.00625000009
   1853,  0.550000012, 0.0125000002
   1854,  0.550000012, 0.0187500007
   1855,  0.550000012, 0.0250000004
   1856,  0.550000012,      0.03125
   1857,  0.550000012, 0.0375000015
   1858,  0.550000012, 0.0437499993
   1859,  0.550000012, 0.0500000007
   1860,  0.550000012, 0.0562499985
   1861,  0.550000012,       0.0625
   1862,  0.550000012, 0.0687500015
   1863,  0.550000012,  0.075000003
   1864,  0.550000012,  0.081249997
   1865,  0.550000012, 0.0874999985
   1866,  0.550000012,      0.09375
   1867,  0.550000012,  0.100000001
   1868,  0.550000012,  0.106250003
   1869,  0.550000012,  0.112499997
   1870,  0.550000012,  0.118749999
   1871,  0.550000012,        0.125
   1872,  0.550000012,  0.131249994
   1873,  0.550000012,  0.137500003
   1874,  0.550000012,  0.143749997
   1875,  0.524999976, 0.00625000009
   1876,  0.524999976, 0.0125000002
   1877,  0.524999976, 0.0187500007
   1878,  0.524999976, 0.0250000004
   1879,  0.524999976,      0.03125
   1880,  0.524999976, 0.0375000015
   1881,  0.524999976, 0.0437499993
   1882,  0.524999976, 0.0500000007
   1883,  0.524999976, 0.0562499985
   1884,  0.524999976,       0.0625
   1885,  0.524999976, 0.0687500015
   1886,  0.524999976,  0.075000003
   1887,  0.524999976,  0.081249997
   1888,  0.524999976, 0.0874999985
   1889,  0.524999976,      0.09375
   1890,  0.524999976,  0.100000001
   1891,  0.524999976,  0.106250003
   1892,  0.524999976,  0.112499997
   1893,  0.524999976,  0.118749999
   1894,  0.524999976,        0.125
   1895,  0.524999976,  0.131249994
   1896,  0.524999976,  0.137500003
   1897,  0.524999976,  0.143749997
   1898,          0.5, 0.00625000009
   1899,          0.5, 0.0125000002
   1900,          0.5, 0.0187500007
   1901,          0.5, 0.0250000004
   1902,          0.5,      0.03125
   1903,          0.5, 0.0375000015
   1904,          0.5, 0.0437499993
   1905,          0.5, 0.0500000007
   1906,          0.5, 0.0562499985
   1907,          0.5,       0.0625
   1908,          0.5, 0.0687500015
   1909,          0.5,  0.075000003
   1910,          0.5,  0.081249997
   1911,          0.5, 0.0874999985
   1912,          0.5,      0.09375
   1913,          0.5,  0.100000001
   1914,          0.5,  0.106250003
   1915,          0.5,  0.112499997
   1916,          0.5,  0.118749999
   1917,          0.5,        0.125
   1918,          0.5,  0.131249994
   1919,          0.5,  0.137500003
   1920,          0.5,  0.143749997
   1921,  0.474999994, 0.00625000009
   1922,  0.474999994, 0.0125000002
   1923,  0.474999994, 0.0187500007
   1924,  0.474999994, 0.0250000004
   1925,  0.474999994,      0.03125
   1926,  0.474999994, 0.0375000015
   1927,  0.474999994, 0.0437499993
   1928,  0.474999994, 0.0500000007
   1929,  0.474999994, 0.0562499985
   1930,  0.474999994,       0.0625
   1931,  0.474999994, 0.0687500015
   1932,  0.474999994,  0.075000003
   1933,  0.474999994,  0.081249997
   1934,  0.474999994, 0.0874999985
   1935,  0.474999994,      0.09375
   1936,  0.474999994,  0.100000001
   1937,  0.474999994,  0.106250003
   1938,  0.474999994,  0.112499997
   1939,  0.474999994,  0.118749999
   1940,  0.474999994,        0.125
   1941,  0.474999994,  0.131249994
   1942,  0.474999994,  0.137500003
   1943,  0.474999994,  0.143749997
   1944,  0.449999988, 0.00625000009
   1945,  0.449999988, 0.0125000002
   1946,  0.449999988, 0.0187500007
   1947,  0.449999988, 0.0250000004
   1948,  0.449999988,      0.03125
   1949,  0.449999988, 0.0375000015
   1950,  0.449999988, 0.0437499993
   1951,  0.449999988, 0.0500000007
   1952,  0.449999988, 0.0562499985
   1953,  0.449999988,       0.0625
   1954,  0.449999988, 0.0687500015
   1955,  0.449999988,  0.075000003
   1956,  0.449999988,  0.081249997
   1957,  0.449999988, 0.0874999985
   1958,  0.449999988,      0.09375
   1959,  0.449999988,  0.100000001
   1960,  0.449999988,  0.106250003
   1961,  0.449999988,  0.112499997
   1962,  0.449999988,  0.118749999
   1963,  0.449999988,        0.125
   1964,  0.449999988,  0.131249994
   1965,  0.449999988,  0.137500003
   1966,  0.449999988,  0.143749997
   1967,  0.425000012, 0.00625000009
   1968,  0.425000012, 0.0125000002
   1969,  0.425000012, 0.0187500007
   1970,  0.425000012, 0.0250000004
   1971,  0.425000012,      0.03125
   1972,  0.425000012, 0.0375000015
   1973,  0.425000012, 0.0437499993
   1974,  0.425000012, 0.0500000007
   1975,  0.425000012, 0.0562499985
   1976,  0.425000012,       0.0625
   1977,  0.425000012, 0.0687500015
   1978,  0.425000012,  0.075000003
   1979,  0.425000012,  0.081249997
   1980,  0.425000012, 0.0874999985
   1981,  0.425000012,      0.09375
   1982,  0.425000012,  0.100000001
   1983,  0.425000012,  0.106250003
   1984,  0.425000012,  0.112499997
   1985,  0.425000012,  0.118749999
   1986,  0.425000012,        0.125
   1987,  0.425000012,  0.131249994
   1988,  0.425000012,  0.137500003
   1989,  0.425000012,  0.143749997
   1990,  0.400000006, 0.00625000009
   1991,  0.400000006, 0.0125000002
   1992,  0.400000006, 0.0187500007
   1993,  0.400000006, 0.0250000004
   1994,  0.400000006,      0.03125
   1995,  0.400000006, 0.0375000015
   1996,  0.400000006, 0.0437499993
   1997,  0.400000006, 0.0500000007
   1998,  0.400000006, 0.0562499985
   1999,  0.400000006,       0.0625
   2000,  0.400000006, 0.0687500015
   2001,  0.400000006,  0.075000003
   2002,  0.400000006,  0.081249997
   2003,  0.400000006, 0.0874999985
   2004,  0.400000006,      0.09375
   2005,  0.400000006,  0.100000001
   2006,  0.400000006,  0.106250003
   2007,  0.400000006,  0.112499997
   2008,  0.400000006,  0.118749999
   2009,  0.400000006,        0.125
   2010,  0.400000006,  0.131249994
   2011,  0.400000006,  0.137500003
   2012,  0.400000006,  0.143749997
   2013,        0.375, 0.00625000009
   2014,        0.375, 0.0125000002
   2015,        0.375, 0.0187500007
   2016,        0.375, 0.0250000004
   2017,        0.375,      0.03125
   2018,        0.375, 0.0375000015
   2019,        0.375, 0.0437499993
   2020,        0.375, 0.0500000007
   2021,        0.375, 0.0562499985
   2022,        0.375,       0.0625
   2023,        0.375, 0.0687500015
   2024,        0.375,  0.075000003
   2025,        0.375,  0.081249997
   2026,        0.375, 0.0874999985
   2027,        0.375,      0.09375
   2028,        0.375,  0.100000001
   2029,        0.375,  0.106250003
   2030,        0.375,  0.112499997
   2031,        0.375,  0.118749999
   2032,        0.375,        0.125
   2033,        0.375,  0.131249994
   2034,        0.375,  0.137500003
   2035,        0.375,  0.143749997
   2036,  0.349999994, 0.00625000009
   2037,  0.349999994, 0.0125000002
   2038,  0.349999994, 0.0187500007
   2039,  0.349999994, 0.0250000004
   2040,  0.349999994,      0.03125
   2041,  0.349999994, 0.0375000015
   2042,  0.349999994, 0.0437499993
   2043,  0.349999994, 0.0500000007
   2044,  0.349999994, 0.0562499985
   2045,  0.349999994,       0.0625
   2046,  0.349999994, 0.0687500015
   2047,  0.349999994,  0.075000003
   2048,  0.349999994,  0.081249997
   2049,  0.349999994, 0.0874999985
   2050,  0.349999994,      0.09375
   2051,  0.349999994,  0.100000001
   2052,  0.349999994,  0.106250003
   2053,  0.349999994,  0.112499997
   2054,  0.349999994,  0.118749999
   2055,  0.349999994,        0.125
   2056,  0.349999994,  0.131249994
   2057,  0.349999994,  0.137500003
   2058,  0.349999994,  0.143749997
   2059,  0.324999988, 0.00625000009
   2060,  0.324999988, 0.0125000002
   2061,  0.324999988, 0.0187500007
   2062,  0.324999988, 0.0250000004
   2063,  0.324999988,      0.03125
   2064,  0.324999988, 0.0375000015
   2065,  0.324999988, 0.0437499993
   2066,  0.324999988, 0.0500000007
   2067,  0.324999988, 0.0562499985
   2068,  0.324999988,       0.0625
   2069,  0.324999988, 0.0687500015
   2070,  0.324999988,  0.075000003
   2071,  0.324999988,  0.081249997
   2072,  0.324999988, 0.0874999985
   2073,  0.324999988,      0.09375
   2074,  0.324999988,  0.100000001
   2075,  0.324999988,  0.106250003
   2076,  0.324999988,  0.112499997
   2077,  0.324999988,  0.118749999
   2078,  0.324999988,        0.125
   2079,  0.324999988,  0.131249994
   2080,  0.324999988,  0.137500003
   2081,  0.324999988,  0.143749997
   2082,  0.300000012, 0.00625000009
   2083,  0.300000012, 0.0125000002
   2084,  0.300000012, 0.0187500007
   2085,  0.300000012, 0.0250000004
   2086,  0.300000012,      0.03125
   2087,  0.300000012, 0.0375000015
   2088,  0.300000012, 0.0437499993
   2089,  0.300000012, 0.0500000007
   2090,  0.300000012, 0.0562499985
   2091,  0.300000012,       0.0625
   2092,  0.300000012, 0.0687500015
   2093,  0.300000012,  0.075000003
   2094,  0.300000012,  0.081249997
   2095,  0.300000012, 0.0874999985
   2096,  0.300000012,      0.09375
   2097,  0.300000012,  0.100000001
   2098,  0.300000012,  0.106250003
   2099,  0.300000012,  0.112499997
   2100,  0.300000012,  0.118749999
   2101,  0.300000012,        0.125
   2102,  0.300000012,  0.131249994
   2103,  0.300000012,  0.137500003
   2104,  0.300000012,  0.143749997
   2105,  0.275000006, 0.00625000009
   2106,  0.275000006, 0.0125000002
   2107,  0.275000006, 0.0187500007
   2108,  0.275000006, 0.0250000004
   2109,  0.275000006,      0.03125
   2110,  0.275000006, 0.0375000015
   2111,  0.275000006, 0.0437499993
   2112,  0.275000006, 0.0500000007
   2113,  0.275000006, 0.0562499985
   2114,  0.275000006,       0.0625
   2115,  0.275000006, 0.0687500015
   2116,  0.275000006,  0.075000003
   2117,  0.275000006,  0.081249997
   2118,  0.275000006, 0.0874999985
   2119,  0.275000006,      0.09375
   2120,  0.275000006,  0.100000001
   2121,  0.275000006,  0.106250003
   2122,  0.275000006,  0.112499997
   2123,  0.275000006,  0.118749999
   2124,  0.275000006,        0.125
   2125,  0.275000006,  0.131249994
   2126,  0.275000006,  0.137500003
   2127,  0.275000006,  0.143749997
   2128,         0.25, 0.00625000009
   2129,         0.25, 0.0125000002
   2130,         0.25, 0.0187500007
   2131,         0.25, 0.0250000004
   2132,         0.25,      0.03125
   2133,         0.25, 0.0375000015
   2134,         0.25, 0.0437499993
   2135,         0.25, 0.0500000007
   2136,         0.25, 0.0562499985
   2137,         0.25,       0.0625
   2138,         0.25, 0.0687500015
   2139,         0.25,  0.075000003
   2140,         0.25,  0.081249997
   2141,         0.25, 0.0874999985
   2142,         0.25,      0.09375
   2143,         0.25,  0.100000001
   2144,         0.25,  0.106250003
   2145,         0.25,  0.112499997
   2146,         0.25,  0.118749999
   2147,         0.25,        0.125
   2148,         0.25,  0.131249994
   2149,         0.25,  0.137500003
   2150,         0.25,  0.143749997
   2151,  0.224999994, 0.00625000009
   2152,  0.224999994, 0.0125000002
   2153,  0.224999994, 0.0187500007
   2154,  0.224999994, 0.0250000004
   2155,  0.224999994,      0.03125
   2156,  0.224999994, 0.0375000015
   2157,  0.224999994, 0.0437499993
   2158,  0.224999994, 0.0500000007
   2159,  0.224999994, 0.0562499985
   2160,  0.224999994,       0.0625
   2161,  0.224999994, 0.0687500015
   2162,  0.224999994,  0.075000003
   2163,  0.224999994,  0.081249997
   2164,  0.224999994, 0.0874999985
   2165,  0.224999994,      0.09375
   2166,  0.224999994,  0.100000001
   2167,  0.224999994,  0.106250003
   2168,  0.224999994,  0.112499997
   2169,  0.224999994,  0.118749999
   2170,  0.224999994,        0.125
   2171,  0.224999994,  0.131249994
   2172,  0.224999994,  0.137500003
   2173,  0.224999994,  0.143749997
   2174,  0.200000003, 0.00625000009
   2175,  0.200000003, 0.0125000002
   2176,  0.200000003, 0.0187500007
   2177,  0.200000003, 0.0250000004
   2178,  0.200000003,      0.03125
   2179,  0.200000003, 0.0375000015
   2180,  0.200000003, 0.0437499993
   2181,  0.200000003, 0.0500000007
   2182,  0.200000003, 0.0562499985
   2183,  0.200000003,       0.0625
   2184,  0.200000003, 0.0687500015
   2185,  0.200000003,  0.075000003
   2186,  0.200000003,  0.081249997
   2187,  0.200000003, 0.0874999985
   2188,  0.200000003,      0.09375
   2189,  0.200000003,  0.100000001
   2190,  0.200000003,  0.106250003
   2191,  0.200000003,  0.112499997
   2192,  0.200000003,  0.118749999
   2193,  0.200000003,        0.125
   2194,  0.200000003,  0.131249994
   2195,  0.200000003,  0.137500003
   2196,  0.200000003,  0.143749997
   2197,  0.174999997, 0.00625000009
   2198,  0.174999997, 0.0125000002
   2199,  0.174999997, 0.0187500007
   2200,  0.174999997, 0.0250000004
   2201,  0.174999997,      0.03125
   2202,  0.174999997, 0.0375000015
   2203,  0.174999997, 0.0437499993
   2204,  0.174999997, 0.0500000007
   2205,  0.174999997, 0.0562499985
   2206,  0.174999997,       0.0625
   2207,  0.174999997, 0.0687500015
   2208,  0.174999997,  0.075000003
   2209,  0.174999997,  0.081249997
   2210,  0.174999997, 0.0874999985
   2211,  0.174999997,      0.09375
   2212,  0.174999997,  0.100000001
   2213,  0.174999997,  0.106250003
   2214,  0.174999997,  0.112499997
   2215,  0.174999997,  0.118749999
   2216,  0.174999997,        0.125
   2217,  0.174999997,  0.131249994
   2218,  0.174999997,  0.137500003
   2219,  0.174999997,  0.143749997
   2220,  0.150000006, 0.00625000009
   2221,  0.150000006, 0.0125000002
   2222,  0.150000006, 0.0187500007
   2223,  0.150000006, 0.0250000004
   2224,  0.150000006,      0.03125
   2225,  0.150000006, 0.0375000015
   2226,  0.150000006, 0.0437499993
   2227,  0.150000006, 0.0500000007
   2228,  0.150000006, 0.0562499985
   2229,  0.150000006,       0.0625
   2230,  0.150000006, 0.0687500015
   2231,  0.150000006,  0.075000003
   2232,  0.150000006,  0.081249997
   2233,  0.150000006, 0.0874999985
   2234,  0.150000006,      0.09375
   2235,  0.150000006,  0.100000001
   2236,  0.150000006,  0.106250003
   2237,  0.150000006,  0.112499997
   2238,  0.150000006,  0.118749999
   2239,  0.150000006,        0.125
   2240,  0.150000006,  0.131249994
   2241,  0.150000006,  0.137500003
   2242,  0.150000006,  0.143749997
   2243,        0.125, 0.00625000009
   2244,        0.125, 0.0125000002
   2245,        0.125, 0.0187500007
   2246,        0.125, 0.0250000004
   2247,        0.125,      0.03125
   2248,        0.125, 0.0375000015
   2249,        0.125, 0.0437499993
   2250,        0.125, 0.0500000007
   2251,        0.125, 0.0562499985
   2252,        0.125,       0.0625
   2253,        0.125, 0.0687500015
   2254,        0.125,  0.075000003
   2255,        0.125,  0.081249997
   2256,        0.125, 0.0874999985
   2257,        0.125,      0.09375
   2258,        0.125,  0.100000001
   2259,        0.125,  0.106250003
   2260,        0.125,  0.112499997
   2261,        0.125,  0.118749999
   2262,        0.125,        0.125
   2263,        0.125,  0.131249994
   2264,        0.125,  0.137500003
   2265,        0.125,  0.143749997
   2266,  0.100000001, 0.00625000009
   2267,  0.100000001, 0.0125000002
   2268,  0.100000001, 0.0187500007
   2269,  0.100000001, 0.0250000004
   2270,  0.100000001,      0.03125
   2271,  0.100000001, 0.0375000015
   2272,  0.100000001, 0.0437499993
   2273,  0.100000001, 0.0500000007
   2274,  0.100000001, 0.0562499985
   2275,  0.100000001,       0.0625
   2276,  0.100000001, 0.0687500015
   2277,  0.100000001,  0.075000003
   2278,  0.100000001,  0.081249997
   2279,  0.100000001, 0.0874999985
   2280,  0.100000001,      0.09375
   2281,  0.100000001,  0.100000001
   2282,  0.100000001,  0.106250003
   2283,  0.100000001,  0.112499997
   2284,  0.100000001,  0.118749999
   2285,  0.100000001,        0.125
   2286,  0.100000001,  0.131249994
   2287,  0.100000001,  0.137500003
   2288,  0.100000001,  0.143749997
   2289,  0.075000003, 0.00625000009
   2290,  0.075000003, 0.0125000002
   2291,  0.075000003, 0.0187500007
   2292,  0.075000003, 0.0250000004
   2293,  0.075000003,      0.03125
   2294,  0.075000003, 0.0375000015
   2295,  0.075000003, 0.0437499993
   2296,  0.075000003, 0.0500000007
   2297,  0.075000003, 0.0562499985
   2298,  0.075000003,       0.0625
   2299,  0.075000003, 0.0687500015
   2300,  0.075000003,  0.075000003
   2301,  0.075000003,  0.081249997
   2302,  0.075000003, 0.0874999985
   2303,  0.075000003,      0.09375
   2304,  0.075000003,  0.100000001
   2305,  0.075000003,  0.106250003
   2306,  0.075000003,  0.112499997
   2307,  0.075000003,  0.118749999
   2308,  0.075000003,        0.125
   2309,  0.075000003,  0.131249994
   2310,  0.075000003,  0.137500003
   2311,  0.075000003,  0.143749997
   2312, 0.0500000007, 0.00625000009
   2313, 0.0500000007, 0.0125000002
   2314, 0.0500000007, 0.0187500007
   2315, 0.0500000007, 0.0250000004
   2316, 0.0500000007,      0.03125
   2317, 0.0500000007, 0.0375000015
   2318, 0.0500000007, 0.0437499993
   2319, 0.0500000007, 0.0500000007
   2320, 0.0500000007, 0.0562499985
   2321, 0.0500000007,       0.0625
   2322, 0.0500000007, 0.0687500015
   2323, 0.0500000007,  0.075000003
   2324, 0.0500000007,  0.081249997
   2325, 0.0500000007, 0.0874999985
   2326, 0.0500000007,      0.09375
   2327, 0.0500000007,  0.100000001
   2328, 0.0500000007,  0.106250003
   2329, 0.0500000007,  0.112499997
   2330, 0.0500000007,  0.118749999
   2331, 0.0500000007,        0.125
   2332, 0.0500000007,  0.131249994
   2333, 0.0500000007,  0.137500003
   2334, 0.0500000007,  0.143749997
   2335, 0.0250000004, 0.00625000009
   2336, 0.0250000004, 0.0125000002
   2337, 0.0250000004, 0.0187500007
   2338, 0.0250000004, 0.0250000004
   2339, 0.0250000004,      0.03125
   2340, 0.0250000004, 0.0375000015
   2341, 0.0250000004, 0.0437499993
   2342, 0.0250000004, 0.0500000007
   2343, 0.0250000004, 0.0562499985
   2344, 0.0250000004,       0.0625
   2345, 0.0250000004, 0.0687500015
   2346, 0.0250000004,  0.075000003
   2347, 0.0250000004,  0.081249997
   2348, 0.0250000004, 0.0874999985
   2349, 0.0250000004,      0.09375
   2350, 0.0250000004,  0.100000001
   2351, 0.0250000004,  0.106250003
   2352, 0.0250000004,  0.112499997
   2353, 0.0250000004,  0.118749999
   2354, 0.0250000004,        0.125
   2355, 0.0250000004,  0.131249994
   2356, 0.0250000004,  0.137500003
   2357, 0.0250000004,  0.143749997
   2358, -0.0250000004, 0.00625000009
   2359, -0.0250000004, 0.0125000002
   2360, -0.0250000004, 0.0187500007
   2361, -0.0250000004, 0.0250000004
   2362, -0.0250000004,      0.03125
   2363, -0.0250000004, 0.0375000015
   2364, -0.0250000004, 0.0437499993
   2365, -0.0250000004, 0.0500000007
   2366, -0.0250000004, 0.0562499985
   2367, -0.0250000004,       0.0625
   2368, -0.0250000004, 0.0687500015
   2369, -0.0250000004,  0.075000003
   2370, -0.0250000004,  0.081249997
   2371, -0.0250000004, 0.0874999985
   2372, -0.0250000004,      0.09375
   2373, -0.0250000004,  0.100000001
   2374, -0.0250000004,  0.106250003
   2375, -0.0250000004,  0.112499997
   2376, -0.0250000004,  0.118749999
   2377, -0.0250000004,        0.125
   2378, -0.0250000004,  0.131249994
   2379, -0.0250000004,  0.137500003
   2380, -0.0250000004,  0.143749997
   2381, -0.0500000007, 0.00625000009
   2382, -0.0500000007, 0.0125000002
   2383, -0.0500000007, 0.0187500007
   2384, -0.0500000007, 0.0250000004
   2385, -0.0500000007,      0.03125
   2386, -0.0500000007, 0.0375000015
   2387, -0.0500000007, 0.0437499993
   2388, -0.0500000007, 0.0500000007
   2389, -0.0500000007, 0.0562499985
   2390, -0.0500000007,       0.0625
   2391, -0.0500000007, 0.0687500015
   2392, -0.0500000007,  0.075000003
   2393, -0.0500000007,  0.081249997
   2394, -0.0500000007, 0.0874999985
   2395, -0.0500000007,      0.09375
   2396, -0.0500000007,  0.100000001
   2397, -0.0500000007,  0.106250003
   2398, -0.0500000007,  0.112499997
   2399, -0.0500000007,  0.118749999
   2400, -0.0500000007,        0.125
   2401, -0.0500000007,  0.131249994
   2402, -0.0500000007,  0.137500003
   2403, -0.0500000007,  0.143749997
   2404, -0.075000003, 0.00625000009
   2405, -0.075000003, 0.0125000002
   2406, -0.075000003, 0.0187500007
   2407, -0.075000003, 0.0250000004
   2408, -0.075000003,      0.03125
   2409, -0.075000003, 0.0375000015
   2410, -0.075000003, 0.0437499993
   2411, -0.075000003, 0.0500000007
   2412, -0.075000003, 0.0562499985
   2413, -0.075000003,       0.0625
   2414, -0.075000003, 0.0687500015
   2415, -0.075000003,  0.075000003
   2416, -0.075000003,  0.081249997
   2417, -0.075000003, 0.0874999985
   2418, -0.075000003,      0.09375
   2419, -0.075000003,  0.100000001
   2420, -0.075000003,  0.106250003
   2421, -0.075000003,  0.112499997
   2422, -0.075000003,  0.118749999
   2423, -0.075000003,        0.125
   2424, -0.075000003,  0.131249994
   2425, -0.075000003,  0.137500003
   2426, -0.075000003,  0.143749997
   2427, -0.100000001, 0.00625000009
   2428, -0.100000001, 0.0125000002
   2429, -0.100000001, 0.0187500007
   2430, -0.100000001, 0.0250000004
   2431, -0.100000001,      0.03125
   2432, -0.100000001, 0.0375000015
   2433, -0.100000001, 0.0437499993
   2434, -0.100000001, 0.0500000007
   2435, -0.100000001, 0.0562499985
   2436, -0.100000001,       0.0625
   2437, -0.100000001, 0.0687500015
   2438, -0.100000001,  0.075000003
   2439, -0.100000001,  0.081249997
   2440, -0.100000001, 0.0874999985
   2441, -0.100000001,      0.09375
   2442, -0.100000001,  0.100000001
   2443, -0.100000001,  0.106250003
   2444, -0.100000001,  0.112499997
   2445, -0.100000001,  0.118749999
   2446, -0.100000001,        0.125
   2447, -0.100000001,  0.131249994
   2448, -0.100000001,  0.137500003
   2449, -0.100000001,  0.143749997
   2450,       -0.125, 0.00625000009
   2451,       -0.125, 0.0125000002
   2452,       -0.125, 0.0187500007
   2453,       -0.125, 0.0250000004
   2454,       -0.125,      0.03125
   2455,       -0.125, 0.0375000015
   2456,       -0.125, 0.0437499993
   2457,       -0.125, 0.0500000007
   2458,       -0.125, 0.0562499985
   2459,       -0.125,       0.0625
   2460,       -0.125, 0.0687500015
   2461,       -0.125,  0.075000003
   2462,       -0.125,  0.081249997
   2463,       -0.125, 0.0874999985
   2464,       -0.125,      0.09375
   2465,       -0.125,  0.100000001
   2466,       -0.125,  0.106250003
   2467,       -0.125,  0.112499997
   2468,       -0.125,  0.118749999
   2469,       -0.125,        0.125
   2470,       -0.125,  0.131249994
   2471,       -0.125,  0.137500003
   2472,       -0.125,  0.143749997
   2473, -0.150000006, 0.00625000009
   2474, -0.150000006, 0.0125000002
   2475, -0.150000006, 0.0187500007
   2476, -0.150000006, 0.0250000004
   2477, -0.150000006,      0.03125
   2478, -0.150000006, 0.0375000015
   2479, -0.150000006, 0.0437499993
   2480, -0.150000006, 0.0500000007
   2481, -0.150000006, 0.0562499985
   2482, -0.150000006,       0.0625
   2483, -0.150000006, 0.0687500015
   2484, -0.150000006,  0.075000003
   2485, -0.150000006,  0.081249997
   2486, -0.150000006, 0.0874999985
   2487, -0.150000006,      0.09375
   2488, -0.150000006,  0.100000001
   2489, -0.150000006,  0.106250003
   2490, -0.150000006,  0.112499997
   2491, -0.150000006,  0.118749999
   2492, -0.150000006,        0.125
   2493, -0.150000006,  0.131249994
   2494, -0.150000006,  0.137500003
   2495, -0.150000006,  0.143749997
   2496, -0.174999997, 0.00625000009
   2497, -0.174999997, 0.0125000002
   2498, -0.174999997, 0.0187500007
   2499, -0.174999997, 0.0250000004
   2500, -0.174999997,      0.03125
   2501, -0.174999997, 0.0375000015
   2502, -0.174999997, 0.0437499993
   2503, -0.174999997, 0.0500000007
   2504, -0.174999997, 0.0562499985
   2505, -0.174999997,       0.0625
   2506, -0.174999997, 0.0687500015
   2507, -0.174999997,  0.075000003
   2508, -0.174999997,  0.081249997
   2509, -0.174999997, 0.0874999985
   2510, -0.174999997,      0.09375
   2511, -0.174999997,  0.100000001
   2512, -0.174999997,  0.106250003
   2513, -0.174999997,  0.112499997
   2514, -0.174999997,  0.118749999
   2515, -0.174999997,        0.125
   2516, -0.174999997,  0.131249994
   2517, -0.174999997,  0.137500003
   2518, -0.174999997,  0.143749997
   2519, -0.200000003, 0.00625000009
   2520, -0.200000003, 0.0125000002
   2521, -0.200000003, 0.0187500007
   2522, -0.200000003, 0.0250000004
   2523, -0.200000003,      0.03125
   2524, -0.200000003, 0.0375000015
   2525, -0.200000003, 0.0437499993
   2526, -0.200000003, 0.0500000007
   2527, -0.200000003, 0.0562499985
   2528, -0.200000003,       0.0625
   2529, -0.200000003, 0.0687500015
   2530, -0.200000003,  0.075000003
   2531, -0.200000003,  0.081249997
   2532, -0.200000003, 0.0874999985
   2533, -0.200000003,      0.09375
   2534, -0.200000003,  0.100000001
   2535, -0.200000003,  0.106250003
   2536, -0.200000003,  0.112499997
   2537, -0.200000003,  0.118749999
   2538, -0.200000003,        0.125
   2539, -0.200000003,  0.131249994
   2540, -0.200000003,  0.137500003
   2541, -0.200000003,  0.143749997
   2542, -0.224999994, 0.00625000009
   2543, -0.224999994, 0.0125000002
   2544, -0.224999994, 0.0187500007
   2545, -0.224999994, 0.0250000004
   2546, -0.224999994,      0.03125
   2547, -0.224999994, 0.0375000015
   2548, -0.224999994, 0.0437499993
   2549, -0.224999994, 0.0500000007
   2550, -0.224999994, 0.0562499985
   2551, -0.224999994,       0.0625
   2552, -0.224999994, 0.0687500015
   2553, -0.224999994,  0.075000003
   2554, -0.224999994,  0.081249997
   2555, -0.224999994, 0.0874999985
   2556, -0.224999994,      0.09375
   2557, -0.224999994,  0.100000001
   2558, -0.224999994,  0.106250003
   2559, -0.224999994,  0.112499997
   2560, -0.224999994,  0.118749999
   2561, -0.224999994,        0.125
   2562, -0.224999994,  0.131249994
   2563, -0.224999994,  0.137500003
   2564, -0.224999994,  0.143749997
   2565,        -0.25, 0.00625000009
   2566,        -0.25, 0.0125000002
   2567,        -0.25, 0.0187500007
   2568,        -0.25, 0.0250000004
   2569,        -0.25,      0.03125
   2570,        -0.25, 0.0375000015
   2571,        -0.25, 0.0437499993
   2572,        -0.25, 0.0500000007
   2573,        -0.25, 0.0562499985
   2574,        -0.25,       0.0625
   2575,        -0.25, 0.0687500015
   2576,        -0.25,  0.075000003
   2577,        -0.25,  0.081249997
   2578,        -0.25, 0.0874999985
   2579,        -0.25,      0.09375
   2580,        -0.25,  0.100000001
   2581,        -0.25,  0.106250003
   2582,        -0.25,  0.112499997
   2583,        -0.25,  0.118749999
   2584,        -0.25,        0.125
   2585,        -0.25,  0.131249994
   2586,        -0.25,  0.137500003
   2587,        -0.25,  0.143749997
   2588, -0.275000006, 0.00625000009
   2589, -0.275000006, 0.0125000002
   2590, -0.275000006, 0.0187500007
   2591, -0.275000006, 0.0250000004
   2592, -0.275000006,      0.03125
   2593, -0.275000006, 0.0375000015
   2594, -0.275000006, 0.0437499993
   2595, -0.275000006, 0.0500000007
   2596, -0.275000006, 0.0562499985
   2597, -0.275000006,       0.0625
   2598, -0.275000006, 0.0687500015
   2599, -0.275000006,  0.075000003
   2600, -0.275000006,  0.081249997
   2601, -0.275000006, 0.0874999985
   2602, -0.275000006,      0.09375
   2603, -0.275000006,  0.100000001
   2604, -0.275000006,  0.106250003
   2605, -0.275000006,  0.112499997
   2606, -0.275000006,  0.118749999
   2607, -0.275000006,        0.125
   2608, -0.275000006,  0.131249994
   2609, -0.275000006,  0.137500003
   2610, -0.275000006,  0.143749997
   2611, -0.300000012, 0.00625000009
   2612, -0.300000012, 0.0125000002
   2613, -0.300000012, 0.0187500007
   2614, -0.300000012, 0.0250000004
   2615, -0.300000012,      0.03125
   2616, -0.300000012, 0.0375000015
   2617, -0.300000012, 0.0437499993
   2618, -0.300000012, 0.0500000007
   2619, -0.300000012, 0.0562499985
   2620, -0.300000012,       0.0625
   2621, -0.300000012, 0.0687500015
   2622, -0.300000012,  0.075000003
   2623, -0.300000012,  0.081249997
   2624, -0.300000012, 0.0874999985
   2625, -0.300000012,      0.09375
   2626, -0.300000012,  0.100000001
   2627, -0.300000012,  0.106250003
   2628, -0.300000012,  0.112499997
   2629, -0.300000012,  0.118749999
   2630, -0.300000012,        0.125
   2631, -0.300000012,  0.131249994
   2632, -0.300000012,  0.137500003
   2633, -0.300000012,  0.143749997
   2634, -0.324999988, 0.00625000009
   2635, -0.324999988, 0.0125000002
   2636, -0.324999988, 0.0187500007
   2637, -0.324999988, 0.0250000004
   2638, -0.324999988,      0.03125
   2639, -0.324999988, 0.0375000015
   2640, -0.324999988, 0.0437499993
   2641, -0.324999988, 0.0500000007
   2642, -0.324999988, 0.0562499985
   2643, -0.324999988,       0.0625
   2644, -0.324999988, 0.0687500015
   2645, -0.324999988,  0.075000003
   2646, -0.324999988,  0.081249997
   2647, -0.324999988, 0.0874999985
   2648, -0.324999988,      0.09375
   2649, -0.324999988,  0.100000001
   2650, -0.324999988,  0.106250003
   2651, -0.324999988,  0.112499997
   2652, -0.324999988,  0.118749999
   2653, -0.324999988,        0.125
   2654, -0.324999988,  0.131249994
   2655, -0.324999988,  0.137500003
   2656, -0.324999988,  0.143749997
   2657, -0.349999994, 0.00625000009
   2658, -0.349999994, 0.0125000002
   2659, -0.349999994, 0.0187500007
   2660, -0.349999994, 0.0250000004
   2661, -0.349999994,      0.03125
   2662, -0.349999994, 0.0375000015
   2663, -0.349999994, 0.0437499993
   2664, -0.349999994, 0.0500000007
   2665, -0.349999994, 0.0562499985
   2666, -0.349999994,       0.0625
   2667, -0.349999994, 0.0687500015
   2668, -0.349999994,  0.075000003
   2669, -0.349999994,  0.081249997
   2670, -0.349999994, 0.0874999985
   2671, -0.349999994,      0.09375
   2672, -0.349999994,  0.100000001
   2673, -0.349999994,  0.106250003
   2674, -0.349999994,  0.112499997
   2675, -0.349999994,  0.118749999
   2676, -0.349999994,        0.125
   2677, -0.349999994,  0.131249994
   2678, -0.349999994,  0.137500003
   2679, -0.349999994,  0.143749997
   2680,       -0.375, 0.00625000009
   2681,       -0.375, 0.0125000002
   2682,       -0.375, 0.0187500007
   2683,       -0.375, 0.0250000004
   2684,       -0.375,      0.03125
   2685,       -0.375, 0.0375000015
   2686,       -0.375, 0.0437499993
   2687,       -0.375, 0.0500000007
   2688,       -0.375, 0.0562499985
   2689,       -0.375,       0.0625
   2690,       -0.375, 0.0687500015
   2691,       -0.375,  0.075000003
   2692,       -0.375,  0.081249997
   2693,       -0.375, 0.0874999985
   2694,       -0.375,      0.09375
   2695,       -0.375,  0.100000001
   2696,       -0.375,  0.106250003
   2697,       -0.375,  0.112499997
   2698,       -0.375,  0.118749999
   2699,       -0.375,        0.125
   2700,       -0.375,  0.131249994
   2701,       -0.375,  0.137500003
   2702,       -0.375,  0.143749997
   2703, -0.400000006, 0.00625000009
   2704, -0.400000006, 0.0125000002
   2705, -0.400000006, 0.0187500007
   2706, -0.400000006, 0.0250000004
   2707, -0.400000006,      0.03125
   2708, -0.400000006, 0.0375000015
   2709, -0.400000006, 0.0437499993
   2710, -0.400000006, 0.0500000007
   2711, -0.400000006, 0.0562499985
   2712, -0.400000006,       0.0625
   2713, -0.400000006, 0.0687500015
   2714, -0.400000006,  0.075000003
   2715, -0.400000006,  0.081249997
   2716, -0.400000006, 0.0874999985
   2717, -0.400000006,      0.09375
   2718, -0.400000006,  0.100000001
   2719, -0.400000006,  0.106250003
   2720, -0.400000006,  0.112499997
   2721, -0.400000006,  0.118749999
   2722, -0.400000006,        0.125
   2723, -0.400000006,  0.131249994
   2724, -0.400000006,  0.137500003
   2725, -0.400000006,  0.143749997
   2726, -0.425000012, 0.00625000009
   2727, -0.425000012, 0.0125000002
   2728, -0.425000012, 0.0187500007
   2729, -0.425000012, 0.0250000004
   2730, -0.425000012,      0.03125
   2731, -0.425000012, 0.0375000015
   2732, -0.425000012, 0.0437499993
   2733, -0.425000012, 0.0500000007
   2734, -0.425000012, 0.0562499985
   2735, -0.425000012,       0.0625
   2736, -0.425000012, 0.0687500015
   2737, -0.425000012,  0.075000003
   2738, -0.425000012,  0.081249997
   2739, -0.425000012, 0.0874999985
   2740, -0.425000012,      0.09375
   2741, -0.425000012,  0.100000001
   2742, -0.425000012,  0.106250003
   2743, -0.425000012,  0.112499997
   2744, -0.425000012,  0.118749999
   2745, -0.425000012,        0.125
   2746, -0.425000012,  0.131249994
   2747, -0.425000012,  0.137500003
   2748, -0.425000012,  0.143749997
   2749, -0.449999988, 0.00625000009
   2750, -0.449999988, 0.0125000002
   2751, -0.449999988, 0.0187500007
   2752, -0.449999988, 0.0250000004
   2753, -0.449999988,      0.03125
   2754, -0.449999988, 0.0375000015
   2755, -0.449999988, 0.0437499993
   2756, -0.449999988, 0.0500000007
   2757, -0.449999988, 0.0562499985
   2758, -0.449999988,       0.0625
   2759, -0.449999988, 0.0687500015
   2760, -0.449999988,  0.075000003
   2761, -0.449999988,  0.081249997
   2762, -0.449999988, 0.0874999985
   2763, -0.449999988,      0.09375
   2764, -0.449999988,  0.100000001
   2765, -0.449999988,  0.106250003
   2766, -0.449999988,  0.112499997
   2767, -0.449999988,  0.118749999
   2768, -0.449999988,        0.125
   2769, -0.449999988,  0.131249994
   2770, -0.449999988,  0.137500003
   2771, -0.449999988,  0.143749997
   2772, -0.474999994, 0.00625000009
   2773, -0.474999994, 0.0125000002
   2774, -0.474999994, 0.0187500007
   2775, -0.474999994, 0.0250000004
   2776, -0.474999994,      0.03125
   2777, -0.474999994, 0.0375000015
   2778, -0.474999994, 0.0437499993
   2779, -0.474999994, 0.0500000007
   2780, -0.474999994, 0.0562499985
   2781, -0.474999994,       0.0625
   2782, -0.474999994, 0.0687500015
   2783, -0.474999994,  0.075000003
   2784, -0.474999994,  0.081249997
   2785, -0.474999994, 0.0874999985
   2786, -0.474999994,      0.09375
   2787, -0.474999994,  0.100000001
   2788, -0.474999994,  0.106250003
   2789, -0.474999994,  0.112499997
   2790, -0.474999994,  0.118749999
   2791, -0.474999994,        0.125
   2792, -0.474999994,  0.131249994
   2793, -0.474999994,  0.137500003
   2794, -0.474999994,  0.143749997
   2795,         -0.5, 0.00625000009
   2796,         -0.5, 0.0125000002
   2797,         -0.5, 0.0187500007
   2798,         -0.5, 0.0250000004
   2799,         -0.5,      0.03125
   2800,         -0.5, 0.0375000015
   2801,         -0.5, 0.0437499993
   2802,         -0.5, 0.0500000007
   2803,         -0.5, 0.0562499985
   2804,         -0.5,       0.0625
   2805,         -0.5, 0.0687500015
   2806,         -0.5,  0.075000003
   2807,         -0.5,  0.081249997
   2808,         -0.5, 0.0874999985
   2809,         -0.5,      0.09375
   2810,         -0.5,  0.100000001
   2811,         -0.5,  0.106250003
   2812,         -0.5,  0.112499997
   2813,         -0.5,  0.118749999
   2814,         -0.5,        0.125
   2815,         -0.5,  0.131249994
   2816,         -0.5,  0.137500003
   2817,         -0.5,  0.143749997
   2818, -0.524999976, 0.00625000009
   2819, -0.524999976, 0.0125000002
   2820, -0.524999976, 0.0187500007
   2821, -0.524999976, 0.0250000004
   2822, -0.524999976,      0.03125
   2823, -0.524999976, 0.0375000015
   2824, -0.524999976, 0.0437499993
   2825, -0.524999976, 0.0500000007
   2826, -0.524999976, 0.0562499985
   2827, -0.524999976,       0.0625
   2828, -0.524999976, 0.0687500015
   2829, -0.524999976,  0.075000003
   2830, -0.524999976,  0.081249997
   2831, -0.524999976, 0.0874999985
   2832, -0.524999976,      0.09375
   2833, -0.524999976,  0.100000001
   2834, -0.524999976,  0.106250003
   2835, -0.524999976,  0.112499997
   2836, -0.524999976,  0.118749999
   2837, -0.524999976,        0.125
   2838, -0.524999976,  0.131249994
   2839, -0.524999976,  0.137500003
   2840, -0.524999976,  0.143749997
   2841, -0.550000012, 0.00625000009
   2842, -0.550000012, 0.0125000002
   2843, -0.550000012, 0.0187500007
   2844, -0.550000012, 0.0250000004
   2845, -0.550000012,      0.03125
   2846, -0.550000012, 0.0375000015
   2847, -0.550000012, 0.0437499993
   2848, -0.550000012, 0.0500000007
   2849, -0.550000012, 0.0562499985
   2850, -0.550000012,       0.0625
   2851, -0.550000012, 0.0687500015
   2852, -0.550000012,  0.075000003
   2853, -0.550000012,  0.081249997
   2854, -0.550000012, 0.0874999985
   2855, -0.550000012,      0.09375
   2856, -0.550000012,  0.100000001
   2857, -0.550000012,  0.106250003
   2858, -0.550000012,  0.112499997
   2859, -0.550000012,  0.118749999
   2860, -0.550000012,        0.125
   2861, -0.550000012,  0.131249994
   2862, -0.550000012,  0.137500003
   2863, -0.550000012,  0.143749997
   2864, -0.574999988, 0.00625000009
   2865, -0.574999988, 0.0125000002
   2866, -0.574999988, 0.0187500007
   2867, -0.574999988, 0.0250000004
   2868, -0.574999988,      0.03125
   2869, -0.574999988, 0.0375000015
   2870, -0.574999988, 0.0437499993
   2871, -0.574999988, 0.0500000007
   2872, -0.574999988, 0.0562499985
   2873, -0.574999988,       0.0625
   2874, -0.574999988, 0.0687500015
   2875, -0.574999988,  0.075000003
   2876, -0.574999988,  0.081249997
   2877, -0.574999988, 0.0874999985
   2878, -0.574999988,      0.09375
   2879, -0.574999988,  0.100000001
   2880, -0.574999988,  0.106250003
   2881, -0.574999988,  0.112499997
   2882, -0.574999988,  0.118749999
   2883, -0.574999988,        0.125
   2884, -0.574999988,  0.131249994
   2885, -0.574999988,  0.137500003
   2886, -0.574999988,  0.143749997
   2887, -0.600000024, 0.00625000009
   2888, -0.600000024, 0.0125000002
   2889, -0.600000024, 0.0187500007
   2890, -0.600000024, 0.0250000004
   2891, -0.600000024,      0.03125
   2892, -0.600000024, 0.0375000015
   2893, -0.600000024, 0.0437499993
   2894, -0.600000024, 0.0500000007
   2895, -0.600000024, 0.0562499985
   2896, -0.600000024,       0.0625
   2897, -0.600000024, 0.0687500015
   2898, -0.600000024,  0.075000003
   2899, -0.600000024,  0.081249997
   2900, -0.600000024, 0.0874999985
   2901, -0.600000024,      0.09375
   2902, -0.600000024,  0.100000001
   2903, -0.600000024,  0.106250003
   2904, -0.600000024,  0.112499997
   2905, -0.600000024,  0.118749999
   2906, -0.600000024,        0.125
   2907, -0.600000024,  0.131249994
   2908, -0.600000024,  0.137500003
   2909, -0.600000024,  0.143749997
   2910,       -0.625, 0.00625000009
   2911,       -0.625, 0.0125000002
   2912,       -0.625, 0.0187500007
   2913,       -0.625, 0.0250000004
   2914,       -0.625,      0.03125
   2915,       -0.625, 0.0375000015
   2916,       -0.625, 0.0437499993
   2917,       -0.625, 0.0500000007
   2918,       -0.625, 0.0562499985
   2919,       -0.625,       0.0625
   2920,       -0.625, 0.0687500015
   2921,       -0.625,  0.075000003
   2922,       -0.625,  0.081249997
   2923,       -0.625, 0.0874999985
   2924,       -0.625,      0.09375
   2925,       -0.625,  0.100000001
   2926,       -0.625,  0.106250003
   2927,       -0.625,  0.112499997
   2928,       -0.625,  0.118749999
   2929,       -0.625,        0.125
   2930,       -0.625,  0.131249994
   2931,       -0.625,  0.137500003
   2932,       -0.625,  0.143749997
   2933, -0.649999976, 0.00625000009
   2934, -0.649999976, 0.0125000002
   2935, -0.649999976, 0.0187500007
   2936, -0.649999976, 0.0250000004
   2937, -0.649999976,      0.03125
   2938, -0.649999976, 0.0375000015
   2939, -0.649999976, 0.0437499993
   2940, -0.649999976, 0.0500000007
   2941, -0.649999976, 0.0562499985
   2942, -0.649999976,       0.0625
   2943, -0.649999976, 0.0687500015
   2944, -0.649999976,  0.075000003
   2945, -0.649999976,  0.081249997
   2946, -0.649999976, 0.0874999985
   2947, -0.649999976,      0.09375
   2948, -0.649999976,  0.100000001
   2949, -0.649999976,  0.106250003
   2950, -0.649999976,  0.112499997
   2951, -0.649999976,  0.118749999
   2952, -0.649999976,        0.125
   2953, -0.649999976,  0.131249994
   2954, -0.649999976,  0.137500003
   2955, -0.649999976,  0.143749997
   2956, -0.675000012, 0.00625000009
   2957, -0.675000012, 0.0125000002
   2958, -0.675000012, 0.0187500007
   2959, -0.675000012, 0.0250000004
   2960, -0.675000012,      0.03125
   2961, -0.675000012, 0.0375000015
   2962, -0.675000012, 0.0437499993
   2963, -0.675000012, 0.0500000007
   2964, -0.675000012, 0.0562499985
   2965, -0.675000012,       0.0625
   2966, -0.675000012, 0.0687500015
   2967, -0.675000012,  0.075000003
   2968, -0.675000012,  0.081249997
   2969, -0.675000012, 0.0874999985
   2970, -0.675000012,      0.09375
   2971, -0.675000012,  0.100000001
   2972, -0.675000012,  0.106250003
   2973, -0.675000012,  0.112499997
   2974, -0.675000012,  0.118749999
   2975, -0.675000012,        0.125
   2976, -0.675000012,  0.131249994
   2977, -0.675000012,  0.137500003
   2978, -0.675000012,  0.143749997
   2979, -0.699999988, 0.00625000009
   2980, -0.699999988, 0.0125000002
   2981, -0.699999988, 0.0187500007
   2982, -0.699999988, 0.0250000004
   2983, -0.699999988,      0.03125
   2984, -0.699999988, 0.0375000015
   2985, -0.699999988, 0.0437499993
   2986, -0.699999988, 0.0500000007
   2987, -0.699999988, 0.0562499985
   2988, -0.699999988,       0.0625
   2989, -0.699999988, 0.0687500015
   2990, -0.699999988,  0.075000003
   2991, -0.699999988,  0.081249997
   2992, -0.699999988, 0.0874999985
   2993, -0.699999988,      0.09375
   2994, -0.699999988,  0.100000001
   2995, -0.699999988,  0.106250003
   2996, -0.699999988,  0.112499997
   2997, -0.699999988,  0.118749999
   2998, -0.699999988,        0.125
   2999, -0.699999988,  0.131249994
   3000, -0.699999988,  0.137500003
   3001, -0.699999988,  0.143749997
   3002, -0.725000024, 0.00625000009
   3003, -0.725000024, 0.0125000002
   3004, -0.725000024, 0.0187500007
   3005, -0.725000024, 0.0250000004
   3006, -0.725000024,      0.03125
   3007, -0.725000024, 0.0375000015
   3008, -0.725000024, 0.0437499993
   3009, -0.725000024, 0.0500000007
   3010, -0.725000024, 0.0562499985
   3011, -0.725000024,       0.0625
   3012, -0.725000024, 0.0687500015
   3013, -0.725000024,  0.075000003
   3014, -0.725000024,  0.081249997
   3015, -0.725000024, 0.0874999985
   3016, -0.725000024,      0.09375
   3017, -0.725000024,  0.100000001
   3018, -0.725000024,  0.106250003
   3019, -0.725000024,  0.112499997
   3020, -0.725000024,  0.118749999
   3021, -0.725000024,        0.125
   3022, -0.725000024,  0.131249994
   3023, -0.725000024,  0.137500003
   3024, -0.725000024,  0.143749997
   3025,        -0.75, 0.00625000009
   3026,        -0.75, 0.0125000002
   3027,        -0.75, 0.0187500007
   3028,        -0.75, 0.0250000004
   3029,        -0.75,      0.03125
   3030,        -0.75, 0.0375000015
   3031,        -0.75, 0.0437499993
   3032,        -0.75, 0.0500000007
   3033,        -0.75, 0.0562499985
   3034,        -0.75,       0.0625
   3035,        -0.75, 0.0687500015
   3036,        -0.75,  0.075000003
   3037,        -0.75,  0.081249997
   3038,        -0.75, 0.0874999985
   3039,        -0.75,      0.09375
   3040,        -0.75,  0.100000001
   3041,        -0.75,  0.106250003
   3042,        -0.75,  0.112499997
   3043,        -0.75,  0.118749999
   3044,        -0.75,        0.125
   3045,        -0.75,  0.131249994
   3046,        -0.75,  0.137500003
   3047,        -0.75,  0.143749997
   3048, -0.774999976, 0.00625000009
   3049, -0.774999976, 0.0125000002
   3050, -0.774999976, 0.0187500007
   3051, -0.774999976, 0.0250000004
   3052, -0.774999976,      0.03125
   3053, -0.774999976, 0.0375000015
   3054, -0.774999976, 0.0437499993
   3055, -0.774999976, 0.0500000007
   3056, -0.774999976, 0.0562499985
   3057, -0.774999976,       0.0625
   3058, -0.774999976, 0.0687500015
   3059, -0.774999976,  0.075000003
   3060, -0.774999976,  0.081249997
   3061, -0.774999976, 0.0874999985
   3062, -0.774999976,      0.09375
   3063, -0.774999976,  0.100000001
   3064, -0.774999976,  0.106250003
   3065, -0.774999976,  0.112499997
   3066, -0.774999976,  0.118749999
   3067, -0.774999976,        0.125
   3068, -0.774999976,  0.131249994
   3069, -0.774999976,  0.137500003
   3070, -0.774999976,  0.143749997
   3071, -0.800000012, 0.00625000009
   3072, -0.800000012, 0.0125000002
   3073, -0.800000012, 0.0187500007
   3074, -0.800000012, 0.0250000004
   3075, -0.800000012,      0.03125
   3076, -0.800000012, 0.0375000015
   3077, -0.800000012, 0.0437499993
   3078, -0.800000012, 0.0500000007
   3079, -0.800000012, 0.0562499985
   3080, -0.800000012,       0.0625
   3081, -0.800000012, 0.0687500015
   3082, -0.800000012,  0.075000003
   3083, -0.800000012,  0.081249997
   3084, -0.800000012, 0.0874999985
   3085, -0.800000012,      0.09375
   3086, -0.800000012,  0.100000001
   3087, -0.800000012,  0.106250003
   3088, -0.800000012,  0.112499997
   3089, -0.800000012,  0.118749999
   3090, -0.800000012,        0.125
   3091, -0.800000012,  0.131249994
   3092, -0.800000012,  0.137500003
   3093, -0.800000012,  0.143749997
   3094, -0.824999988, 0.00625000009
   3095, -0.824999988, 0.0125000002
   3096, -0.824999988, 0.0187500007
   3097, -0.824999988, 0.0250000004
   3098, -0.824999988,      0.03125
   3099, -0.824999988, 0.0375000015
   3100, -0.824999988, 0.0437499993
   3101, -0.824999988, 0.0500000007
   3102, -0.824999988, 0.0562499985
   3103, -0.824999988,       0.0625
   3104, -0.824999988, 0.0687500015
   3105, -0.824999988,  0.075000003
   3106, -0.824999988,  0.081249997
   3107, -0.824999988, 0.0874999985
   3108, -0.824999988,      0.09375
   3109, -0.824999988,  0.100000001
   3110, -0.824999988,  0.106250003
   3111, -0.824999988,  0.112499997
   3112, -0.824999988,  0.118749999
   3113, -0.824999988,        0.125
   3114, -0.824999988,  0.131249994
   3115, -0.824999988,  0.137500003
   3116, -0.824999988,  0.143749997
   3117, -0.850000024, 0.00625000009
   3118, -0.850000024, 0.0125000002
   3119, -0.850000024, 0.0187500007
   3120, -0.850000024, 0.0250000004
   3121, -0.850000024,      0.03125
   3122, -0.850000024, 0.0375000015
   3123, -0.850000024, 0.0437499993
   3124, -0.850000024, 0.0500000007
   3125, -0.850000024, 0.0562499985
   3126, -0.850000024,       0.0625
   3127, -0.850000024, 0.0687500015
   3128, -0.850000024,  0.075000003
   3129, -0.850000024,  0.081249997
   3130, -0.850000024, 0.0874999985
   3131, -0.850000024,      0.09375
   3132, -0.850000024,  0.100000001
   3133, -0.850000024,  0.106250003
   3134, -0.850000024,  0.112499997
   3135, -0.850000024,  0.118749999
   3136, -0.850000024,        0.125
   3137, -0.850000024,  0.131249994
   3138, -0.850000024,  0.137500003
   3139, -0.850000024,  0.143749997
   3140,       -0.875, 0.00625000009
   3141,       -0.875, 0.0125000002
   3142,       -0.875, 0.0187500007
   3143,       -0.875, 0.0250000004
   3144,       -0.875,      0.03125
   3145,       -0.875, 0.0375000015
   3146,       -0.875, 0.0437499993
   3147,       -0.875, 0.0500000007
   3148,       -0.875, 0.0562499985
   3149,       -0.875,       0.0625
   3150,       -0.875, 0.0687500015
   3151,       -0.875,  0.075000003
   3152,       -0.875,  0.081249997
   3153,       -0.875, 0.0874999985
   3154,       -0.875,      0.09375
   3155,       -0.875,  0.100000001
   3156,       -0.875,  0.106250003
   3157,       -0.875,  0.112499997
   3158,       -0.875,  0.118749999
   3159,       -0.875,        0.125
   3160,       -0.875,  0.131249994
   3161,       -0.875,  0.137500003
   3162,       -0.875,  0.143749997
   3163, -0.899999976, 0.00625000009
   3164, -0.899999976, 0.0125000002
   3165, -0.899999976, 0.0187500007
   3166, -0.899999976, 0.0250000004
   3167, -0.899999976,      0.03125
   3168, -0.899999976, 0.0375000015
   3169, -0.899999976, 0.0437499993
   3170, -0.899999976, 0.0500000007
   3171, -0.899999976, 0.0562499985
   3172, -0.899999976,       0.0625
   3173, -0.899999976, 0.0687500015
   3174, -0.899999976,  0.075000003
   3175, -0.899999976,  0.081249997
   3176, -0.899999976, 0.0874999985
   3177, -0.899999976,      0.09375
   3178, -0.899999976,  0.100000001
   3179, -0.899999976,  0.106250003
   3180, -0.899999976,  0.112499997
   3181, -0.899999976,  0.118749999
   3182, -0.899999976,        0.125
   3183, -0.899999976,  0.131249994
   3184, -0.899999976,  0.137500003
   3185, -0.899999976,  0.143749997
   3186, -0.925000012, 0.00625000009
   3187, -0.925000012, 0.0125000002
   3188, -0.925000012, 0.0187500007
   3189, -0.925000012, 0.0250000004
   3190, -0.925000012,      0.03125
   3191, -0.925000012, 0.0375000015
   3192, -0.925000012, 0.0437499993
   3193, -0.925000012, 0.0500000007
   3194, -0.925000012, 0.0562499985
   3195, -0.925000012,       0.0625
   3196, -0.925000012, 0.0687500015
   3197, -0.925000012,  0.075000003
   3198, -0.925000012,  0.081249997
   3199, -0.925000012, 0.0874999985
   3200, -0.925000012,      0.09375
   3201, -0.925000012,  0.100000001
   3202, -0.925000012,  0.106250003
   3203, -0.925000012,  0.112499997
   3204, -0.925000012,  0.118749999
   3205, -0.925000012,        0.125
   3206, -0.925000012,  0.131249994
   3207, -0.925000012,  0.137500003
   3208, -0.925000012,  0.143749997
   3209, -0.949999988, 0.00625000009
   3210, -0.949999988, 0.0125000002
   3211, -0.949999988, 0.0187500007
   3212, -0.949999988, 0.0250000004
   3213, -0.949999988,      0.03125
   3214, -0.949999988, 0.0375000015
   3215, -0.949999988, 0.0437499993
   3216, -0.949999988, 0.0500000007
   3217, -0.949999988, 0.0562499985
   3218, -0.949999988,       0.0625
   3219, -0.949999988, 0.0687500015
   3220, -0.949999988,  0.075000003
   3221, -0.949999988,  0.081249997
   3222, -0.949999988, 0.0874999985
   3223, -0.949999988,      0.09375
   3224, -0.949999988,  0.100000001
   3225, -0.949999988,  0.106250003
   3226, -0.949999988,  0.112499997
   3227, -0.949999988,  0.118749999
   3228, -0.949999988,        0.125
   3229, -0.949999988,  0.131249994
   3230, -0.949999988,  0.137500003
   3231, -0.949999988,  0.143749997
   3232, -0.975000024, 0.00625000009
   3233, -0.975000024, 0.0125000002
   3234, -0.975000024, 0.0187500007
   3235, -0.975000024, 0.0250000004
   3236, -0.975000024,      0.03125
   3237, -0.975000024, 0.0375000015
   3238, -0.975000024, 0.0437499993
   3239, -0.975000024, 0.0500000007
   3240, -0.975000024, 0.0562499985
   3241, -0.975000024,       0.0625
   3242, -0.975000024, 0.0687500015
   3243, -0.975000024,  0.075000003
   3244, -0.975000024,  0.081249997
   3245, -0.975000024, 0.0874999985
   3246, -0.975000024,      0.09375
   3247, -0.975000024,  0.100000001
   3248, -0.975000024,  0.106250003
   3249, -0.975000024,  0.112499997
   3250, -0.975000024,  0.118749999
   3251, -0.975000024,        0.125
   3252, -0.975000024,  0.131249994
   3253, -0.975000024,  0.137500003
   3254, -0.975000024,  0.143749997
   3255,  -1.02499998, 0.00625000009
   3256,  -1.02499998, 0.0125000002
   3257,  -1.02499998, 0.0187500007
   3258,  -1.02499998, 0.0250000004
   3259,  -1.02499998,      0.03125
   3260,  -1.02499998, 0.0375000015
   3261,  -1.02499998, 0.0437499993
   3262,  -1.02499998, 0.0500000007
   3263,  -1.02499998, 0.0562499985
   3264,  -1.02499998,       0.0625
   3265,  -1.02499998, 0.0687500015
   3266,  -1.02499998,  0.075000003
   3267,  -1.02499998,  0.081249997
   3268,  -1.02499998, 0.0874999985
   3269,  -1.02499998,      0.09375
   3270,  -1.02499998,  0.100000001
   3271,  -1.02499998,  0.106250003
   3272,  -1.02499998,  0.112499997
   3273,  -1.02499998,  0.118749999
   3274,  -1.02499998,        0.125
   3275,  -1.02499998,  0.131249994
   3276,  -1.02499998,  0.137500003
   3277,  -1.02499998,  0.143749997
   3278,  -1.04999995, 0.00625000009
   3279,  -1.04999995, 0.0125000002
   3280,  -1.04999995, 0.0187500007
   3281,  -1.04999995, 0.0250000004
   3282,  -1.04999995,      0.03125
   3283,  -1.04999995, 0.0375000015
   3284,  -1.04999995, 0.0437499993
   3285,  -1.04999995, 0.0500000007
   3286,  -1.04999995, 0.0562499985
   3287,  -1.04999995,       0.0625
   3288,  -1.04999995, 0.0687500015
   3289,  -1.04999995,  0.075000003
   3290,  -1.04999995,  0.081249997
   3291,  -1.04999995, 0.0874999985
   3292,  -1.04999995,      0.09375
   3293,  -1.04999995,  0.100000001
   3294,  -1.04999995,  0.106250003
   3295,  -1.04999995,  0.112499997
   3296,  -1.04999995,  0.118749999
   3297,  -1.04999995,        0.125
   3298,  -1.04999995,  0.131249994
   3299,  -1.04999995,  0.137500003
   3300,  -1.04999995,  0.143749997
   3301,  -1.07500005, 0.00625000009
   3302,  -1.07500005, 0.0125000002
   3303,  -1.07500005, 0.0187500007
   3304,  -1.07500005, 0.0250000004
   3305,  -1.07500005,      0.03125
   3306,  -1.07500005, 0.0375000015
   3307,  -1.07500005, 0.0437499993
   3308,  -1.07500005, 0.0500000007
   3309,  -1.07500005, 0.0562499985
   3310,  -1.07500005,       0.0625
   3311,  -1.07500005, 0.0687500015
   3312,  -1.07500005,  0.075000003
   3313,  -1.07500005,  0.081249997
   3314,  -1.07500005, 0.0874999985
   3315,  -1.07500005,      0.09375
   3316,  -1.07500005,  0.100000001
   3317,  -1.07500005,  0.106250003
   3318,  -1.07500005,  0.112499997
   3319,  -1.07500005,  0.118749999
   3320,  -1.07500005,        0.125
   3321,  -1.07500005,  0.131249994
   3322,  -1.07500005,  0.137500003
   3323,  -1.07500005,  0.143749997
   3324,  -1.10000002, 0.00625000009
   3325,  -1.10000002, 0.0125000002
   3326,  -1.10000002, 0.0187500007
   3327,  -1.10000002, 0.0250000004
   3328,  -1.10000002,      0.03125
   3329,  -1.10000002, 0.0375000015
   3330,  -1.10000002, 0.0437499993
   3331,  -1.10000002, 0.0500000007
   3332,  -1.10000002, 0.0562499985
   3333,  -1.10000002,       0.0625
   3334,  -1.10000002, 0.0687500015
   3335,  -1.10000002,  0.075000003
   3336,  -1.10000002,  0.081249997
   3337,  -1.10000002, 0.0874999985
   3338,  -1.10000002,      0.09375
   3339,  -1.10000002,  0.100000001
   3340,  -1.10000002,  0.106250003
   3341,  -1.10000002,  0.112499997
   3342,  -1.10000002,  0.118749999
   3343,  -1.10000002,        0.125
   3344,  -1.10000002,  0.131249994
   3345,  -1.10000002,  0.137500003
   3346,  -1.10000002,  0.143749997
   3347,       -1.125, 0.00625000009
   3348,       -1.125, 0.0125000002
   3349,       -1.125, 0.0187500007
   3350,       -1.125, 0.0250000004
   3351,       -1.125,      0.03125
   3352,       -1.125, 0.0375000015
   3353,       -1.125, 0.0437499993
   3354,       -1.125, 0.0500000007
   3355,       -1.125, 0.0562499985
   3356,       -1.125,       0.0625
   3357,       -1.125, 0.0687500015
   3358,       -1.125,  0.075000003
   3359,       -1.125,  0.081249997
   3360,       -1.125, 0.0874999985
   3361,       -1.125,      0.09375
   3362,       -1.125,  0.100000001
   3363,       -1.125,  0.106250003
   3364,       -1.125,  0.112499997
   3365,       -1.125,  0.118749999
   3366,       -1.125,        0.125
   3367,       -1.125,  0.131249994
   3368,       -1.125,  0.137500003
   3369,       -1.125,  0.143749997
   3370,  -1.14999998, 0.00625000009
   3371,  -1.14999998, 0.0125000002
   3372,  -1.14999998, 0.0187500007
   3373,  -1.14999998, 0.0250000004
   3374,  -1.14999998,      0.03125
   3375,  -1.14999998, 0.0375000015
   3376,  -1.14999998, 0.0437499993
   3377,  -1.14999998, 0.0500000007
   3378,  -1.14999998, 0.0562499985
   3379,  -1.14999998,       0.0625
   3380,  -1.14999998, 0.0687500015
   3381,  -1.14999998,  0.075000003
   3382,  -1.14999998,  0.081249997
   3383,  -1.14999998, 0.0874999985
   3384,  -1.14999998,      0.09375
   3385,  -1.14999998,  0.100000001
   3386,  -1.14999998,  0.106250003
   3387,  -1.14999998,  0.112499997
   3388,  -1.14999998,  0.118749999
   3389,  -1.14999998,        0.125
   3390,  -1.14999998,  0.131249994
   3391,  -1.14999998,  0.137500003
   3392,  -1.14999998,  0.143749997
   3393,  -1.17499995, 0.00625000009
   3394,  -1.17499995, 0.0125000002
   3395,  -1.17499995, 0.0187500007
   3396,  -1.17499995, 0.0250000004
   3397,  -1.17499995,      0.03125
   3398,  -1.17499995, 0.0375000015
   3399,  -1.17499995, 0.0437499993
   3400,  -1.17499995, 0.0500000007
   3401,  -1.17499995, 0.0562499985
   3402,  -1.17499995,       0.0625
   3403,  -1.17499995, 0.0687500015
   3404,  -1.17499995,  0.075000003
   3405,  -1.17499995,  0.081249997
   3406,  -1.17499995, 0.0874999985
   3407,  -1.17499995,      0.09375
   3408,  -1.17499995,  0.100000001
   3409,  -1.17499995,  0.106250003
   3410,  -1.17499995,  0.112499997
   3411,  -1.17499995,  0.118749999
   3412,  -1.17499995,        0.125
   3413,  -1.17499995,  0.131249994
   3414,  -1.17499995,  0.137500003
   3415,  -1.17499995,  0.143749997
   3416,  -1.20000005, 0.00625000009
   3417,  -1.20000005, 0.0125000002
   3418,  -1.20000005, 0.0187500007
   3419,  -1.20000005, 0.0250000004
   3420,  -1.20000005,      0.03125
   3421,  -1.20000005, 0.0375000015
   3422,  -1.20000005, 0.0437499993
   3423,  -1.20000005, 0.0500000007
   3424,  -1.20000005, 0.0562499985
   3425,  -1.20000005,       0.0625
   3426,  -1.20000005, 0.0687500015
   3427,  -1.20000005,  0.075000003
   3428,  -1.20000005,  0.081249997
   3429,  -1.20000005, 0.0874999985
   3430,  -1.20000005,      0.09375
   3431,  -1.20000005,  0.100000001
   3432,  -1.20000005,  0.106250003
   3433,  -1.20000005,  0.112499997
   3434,  -1.20000005,  0.118749999
   3435,  -1.20000005,        0.125
   3436,  -1.20000005,  0.131249994
   3437,  -1.20000005,  0.137500003
   3438,  -1.20000005,  0.143749997
   3439,  -1.22500002, 0.00625000009
   3440,  -1.22500002, 0.0125000002
   3441,  -1.22500002, 0.0187500007
   3442,  -1.22500002, 0.0250000004
   3443,  -1.22500002,      0.03125
   3444,  -1.22500002, 0.0375000015
   3445,  -1.22500002, 0.0437499993
   3446,  -1.22500002, 0.0500000007
   3447,  -1.22500002, 0.0562499985
   3448,  -1.22500002,       0.0625
   3449,  -1.22500002, 0.0687500015
   3450,  -1.22500002,  0.075000003
   3451,  -1.22500002,  0.081249997
   3452,  -1.22500002, 0.0874999985
   3453,  -1.22500002,      0.09375
   3454,  -1.22500002,  0.100000001
   3455,  -1.22500002,  0.106250003
   3456,  -1.22500002,  0.112499997
   3457,  -1.22500002,  0.118749999
   3458,  -1.22500002,        0.125
   3459,  -1.22500002,  0.131249994
   3460,  -1.22500002,  0.137500003
   3461,  -1.22500002,  0.143749997
   3462,        -1.25, 0.00625000009
   3463,        -1.25, 0.0125000002
   3464,        -1.25, 0.0187500007
   3465,        -1.25, 0.0250000004
   3466,        -1.25,      0.03125
   3467,        -1.25, 0.0375000015
   3468,        -1.25, 0.0437499993
   3469,        -1.25, 0.0500000007
   3470,        -1.25, 0.0562499985
   3471,        -1.25,       0.0625
   3472,        -1.25, 0.0687500015
   3473,        -1.25,  0.075000003
   3474,        -1.25,  0.081249997
   3475,        -1.25, 0.0874999985
   3476,        -1.25,      0.09375
   3477,        -1.25,  0.100000001
   3478,        -1.25,  0.106250003
   3479,        -1.25,  0.112499997
   3480,        -1.25,  0.118749999
   3481,        -1.25,        0.125
   3482,        -1.25,  0.131249994
   3483,        -1.25,  0.137500003
   3484,        -1.25,  0.143749997
   3485,  -1.27499998, 0.00625000009
   3486,  -1.27499998, 0.0125000002
   3487,  -1.27499998, 0.0187500007
   3488,  -1.27499998, 0.0250000004
   3489,  -1.27499998,      0.03125
   3490,  -1.27499998, 0.0375000015
   3491,  -1.27499998, 0.0437499993
   3492,  -1.27499998, 0.0500000007
   3493,  -1.27499998, 0.0562499985
   3494,  -1.27499998,       0.0625
   3495,  -1.27499998, 0.0687500015
   3496,  -1.27499998,  0.075000003
   3497,  -1.27499998,  0.081249997
   3498,  -1.27499998, 0.0874999985
   3499,  -1.27499998,      0.09375
   3500,  -1.27499998,  0.100000001
   3501,  -1.27499998,  0.106250003
   3502,  -1.27499998,  0.112499997
   3503,  -1.27499998,  0.118749999
   3504,  -1.27499998,        0.125
   3505,  -1.27499998,  0.131249994
   3506,  -1.27499998,  0.137500003
   3507,  -1.27499998,  0.143749997
   3508,  -1.29999995, 0.00625000009
   3509,  -1.29999995, 0.0125000002
   3510,  -1.29999995, 0.0187500007
   3511,  -1.29999995, 0.0250000004
   3512,  -1.29999995,      0.03125
   3513,  -1.29999995, 0.0375000015
   3514,  -1.29999995, 0.0437499993
   3515,  -1.29999995, 0.0500000007
   3516,  -1.29999995, 0.0562499985
   3517,  -1.29999995,       0.0625
   3518,  -1.29999995, 0.0687500015
   3519,  -1.29999995,  0.075000003
   3520,  -1.29999995,  0.081249997
   3521,  -1.29999995, 0.0874999985
   3522,  -1.29999995,      0.09375
   3523,  -1.29999995,  0.100000001
   3524,  -1.29999995,  0.106250003
   3525,  -1.29999995,  0.112499997
   3526,  -1.29999995,  0.118749999
   3527,  -1.29999995,        0.125
   3528,  -1.29999995,  0.131249994
   3529,  -1.29999995,  0.137500003
   3530,  -1.29999995,  0.143749997
   3531,  -1.32500005, 0.00625000009
   3532,  -1.32500005, 0.0125000002
   3533,  -1.32500005, 0.0187500007
   3534,  -1.32500005, 0.0250000004
   3535,  -1.32500005,      0.03125
   3536,  -1.32500005, 0.0375000015
   3537,  -1.32500005, 0.0437499993
   3538,  -1.32500005, 0.0500000007
   3539,  -1.32500005, 0.0562499985
   3540,  -1.32500005,       0.0625
   3541,  -1.32500005, 0.0687500015
   3542,  -1.32500005,  0.075000003
   3543,  -1.32500005,  0.081249997
   3544,  -1.32500005, 0.0874999985
   3545,  -1.32500005,      0.09375
   3546,  -1.32500005,  0.100000001
   3547,  -1.32500005,  0.106250003
   3548,  -1.32500005,  0.112499997
   3549,  -1.32500005,  0.118749999
   3550,  -1.32500005,        0.125
   3551,  -1.32500005,  0.131249994
   3552,  -1.32500005,  0.137500003
   3553,  -1.32500005,  0.143749997
   3554,  -1.35000002, 0.00625000009
   3555,  -1.35000002, 0.0125000002
   3556,  -1.35000002, 0.0187500007
   3557,  -1.35000002, 0.0250000004
   3558,  -1.35000002,      0.03125
   3559,  -1.35000002, 0.0375000015
   3560,  -1.35000002, 0.0437499993
   3561,  -1.35000002, 0.0500000007
   3562,  -1.35000002, 0.0562499985
   3563,  -1.35000002,       0.0625
   3564,  -1.35000002, 0.0687500015
   3565,  -1.35000002,  0.075000003
   3566,  -1.35000002,  0.081249997
   3567,  -1.35000002, 0.0874999985
   3568,  -1.35000002,      0.09375
   3569,  -1.35000002,  0.100000001
   3570,  -1.35000002,  0.106250003
   3571,  -1.35000002,  0.112499997
   3572,  -1.35000002,  0.118749999
   3573,  -1.35000002,        0.125
   3574,  -1.35000002,  0.131249994
   3575,  -1.35000002,  0.137500003
   3576,  -1.35000002,  0.143749997
   3577,       -1.375, 0.00625000009
   3578,       -1.375, 0.0125000002
   3579,       -1.375, 0.0187500007
   3580,       -1.375, 0.0250000004
   3581,       -1.375,      0.03125
   3582,       -1.375, 0.0375000015
   3583,       -1.375, 0.0437499993
   3584,       -1.375, 0.0500000007
   3585,       -1.375, 0.0562499985
   3586,       -1.375,       0.0625
   3587,       -1.375, 0.0687500015
   3588,       -1.375,  0.075000003
   3589,       -1.375,  0.081249997
   3590,       -1.375, 0.0874999985
   3591,       -1.375,      0.09375
   3592,       -1.375,  0.100000001
   3593,       -1.375,  0.106250003
   3594,       -1.375,  0.112499997
   3595,       -1.375,  0.118749999
   3596,       -1.375,        0.125
   3597,       -1.375,  0.131249994
   3598,       -1.375,  0.137500003
   3599,       -1.375,  0.143749997
   3600,  -1.39999998, 0.00625000009
   3601,  -1.39999998, 0.0125000002
   3602,  -1.39999998, 0.0187500007
   3603,  -1.39999998, 0.0250000004
   3604,  -1.39999998,      0.03125
   3605,  -1.39999998, 0.0375000015
   3606,  -1.39999998, 0.0437499993
   3607,  -1.39999998, 0.0500000007
   3608,  -1.39999998, 0.0562499985
   3609,  -1.39999998,       0.0625
   3610,  -1.39999998, 0.0687500015
   3611,  -1.39999998,  0.075000003
   3612,  -1.39999998,  0.081249997
   3613,  -1.39999998, 0.0874999985
   3614,  -1.39999998,      0.09375
   3615,  -1.39999998,  0.100000001
   3616,  -1.39999998,  0.106250003
   3617,  -1.39999998,  0.112499997
   3618,  -1.39999998,  0.118749999
   3619,  -1.39999998,        0.125
   3620,  -1.39999998,  0.131249994
   3621,  -1.39999998,  0.137500003
   3622,  -1.39999998,  0.143749997
   3623,  -1.42499995, 0.00625000009
   3624,  -1.42499995, 0.0125000002
   3625,  -1.42499995, 0.0187500007
   3626,  -1.42499995, 0.0250000004
   3627,  -1.42499995,      0.03125
   3628,  -1.42499995, 0.0375000015
   3629,  -1.42499995, 0.0437499993
   3630,  -1.42499995, 0.0500000007
   3631,  -1.42499995, 0.0562499985
   3632,  -1.42499995,       0.0625
   3633,  -1.42499995, 0.0687500015
   3634,  -1.42499995,  0.075000003
   3635,  -1.42499995,  0.081249997
   3636,  -1.42499995, 0.0874999985
   3637,  -1.42499995,      0.09375
   3638,  -1.42499995,  0.100000001
   3639,  -1.42499995,  0.106250003
   3640,  -1.42499995,  0.112499997
   3641,  -1.42499995,  0.118749999
   3642,  -1.42499995,        0.125
   3643,  -1.42499995,  0.131249994
   3644,  -1.42499995,  0.137500003
   3645,  -1.42499995,  0.143749997
   3646,  -1.45000005, 0.00625000009
   3647,  -1.45000005, 0.0125000002
   3648,  -1.45000005, 0.0187500007
   3649,  -1.45000005, 0.0250000004
   3650,  -1.45000005,      0.03125
   3651,  -1.45000005, 0.0375000015
   3652,  -1.45000005, 0.0437499993
   3653,  -1.45000005, 0.0500000007
   3654,  -1.45000005, 0.0562499985
   3655,  -1.45000005,       0.0625
   3656,  -1.45000005, 0.0687500015
   3657,  -1.45000005,  0.075000003
   3658,  -1.45000005,  0.081249997
   3659,  -1.45000005, 0.0874999985
   3660,  -1.45000005,      0.09375
   3661,  -1.45000005,  0.100000001
   3662,  -1.45000005,  0.106250003
   3663,  -1.45000005,  0.112499997
   3664,  -1.45000005,  0.118749999
   3665,  -1.45000005,        0.125
   3666,  -1.45000005,  0.131249994
   3667,  -1.45000005,  0.137500003
   3668,  -1.45000005,  0.143749997
   3669,  -1.47500002, 0.00625000009
   3670,  -1.47500002, 0.0125000002
   3671,  -1.47500002, 0.0187500007
   3672,  -1.47500002, 0.0250000004
   3673,  -1.47500002,      0.03125
   3674,  -1.47500002, 0.0375000015
   3675,  -1.47500002, 0.0437499993
   3676,  -1.47500002, 0.0500000007
   3677,  -1.47500002, 0.0562499985
   3678,  -1.47500002,       0.0625
   3679,  -1.47500002, 0.0687500015
   3680,  -1.47500002,  0.075000003
   3681,  -1.47500002,  0.081249997
   3682,  -1.47500002, 0.0874999985
   3683,  -1.47500002,      0.09375
   3684,  -1.47500002,  0.100000001
   3685,  -1.47500002,  0.106250003
   3686,  -1.47500002,  0.112499997
   3687,  -1.47500002,  0.118749999
   3688,  -1.47500002,        0.125
   3689,  -1.47500002,  0.131249994
   3690,  -1.47500002,  0.137500003
   3691,  -1.47500002,  0.143749997
   3692,         -1.5, 0.00625000009
   3693,         -1.5, 0.0125000002
   3694,         -1.5, 0.0187500007
   3695,         -1.5, 0.0250000004
   3696,         -1.5,      0.03125
   3697,         -1.5, 0.0375000015
   3698,         -1.5, 0.0437499993
   3699,         -1.5, 0.0500000007
   3700,         -1.5, 0.0562499985
   3701,         -1.5,       0.0625
   3702,         -1.5, 0.0687500015
   3703,         -1.5,  0.075000003
   3704,         -1.5,  0.081249997
   3705,         -1.5, 0.0874999985
   3706,         -1.5,      0.09375
   3707,         -1.5,  0.100000001
   3708,         -1.5,  0.106250003
   3709,         -1.5,  0.112499997
   3710,         -1.5,  0.118749999
   3711,         -1.5,        0.125
   3712,         -1.5,  0.131249994
   3713,         -1.5,  0.137500003
   3714,         -1.5,  0.143749997
   3715,  -1.52499998, 0.00625000009
   3716,  -1.52499998, 0.0125000002
   3717,  -1.52499998, 0.0187500007
   3718,  -1.52499998, 0.0250000004
   3719,  -1.52499998,      0.03125
   3720,  -1.52499998, 0.0375000015
   3721,  -1.52499998, 0.0437499993
   3722,  -1.52499998, 0.0500000007
   3723,  -1.52499998, 0.0562499985
   3724,  -1.52499998,       0.0625
   3725,  -1.52499998, 0.0687500015
   3726,  -1.52499998,  0.075000003
   3727,  -1.52499998,  0.081249997
   3728,  -1.52499998, 0.0874999985
   3729,  -1.52499998,      0.09375
   3730,  -1.52499998,  0.100000001
   3731,  -1.52499998,  0.106250003
   3732,  -1.52499998,  0.112499997
   3733,  -1.52499998,  0.118749999
   3734,  -1.52499998,        0.125
   3735,  -1.52499998,  0.131249994
   3736,  -1.52499998,  0.137500003
   3737,  -1.52499998,  0.143749997
   3738,  -1.54999995, 0.00625000009
   3739,  -1.54999995, 0.0125000002
   3740,  -1.54999995, 0.0187500007
   3741,  -1.54999995, 0.0250000004
   3742,  -1.54999995,      0.03125
   3743,  -1.54999995, 0.0375000015
   3744,  -1.54999995, 0.0437499993
   3745,  -1.54999995, 0.0500000007
   3746,  -1.54999995, 0.0562499985
   3747,  -1.54999995,       0.0625
   3748,  -1.54999995, 0.0687500015
   3749,  -1.54999995,  0.075000003
   3750,  -1.54999995,  0.081249997
   3751,  -1.54999995, 0.0874999985
   3752,  -1.54999995,      0.09375
   3753,  -1.54999995,  0.100000001
   3754,  -1.54999995,  0.106250003
   3755,  -1.54999995,  0.112499997
   3756,  -1.54999995,  0.118749999
   3757,  -1.54999995,        0.125
   3758,  -1.54999995,  0.131249994
   3759,  -1.54999995,  0.137500003
   3760,  -1.54999995,  0.143749997
   3761,  -1.57500005, 0.00625000009
   3762,  -1.57500005, 0.0125000002
   3763,  -1.57500005, 0.0187500007
   3764,  -1.57500005, 0.0250000004
   3765,  -1.57500005,      0.03125
   3766,  -1.57500005, 0.0375000015
   3767,  -1.57500005, 0.0437499993
   3768,  -1.57500005, 0.0500000007
   3769,  -1.57500005, 0.0562499985
   3770,  -1.57500005,       0.0625
   3771,  -1.57500005, 0.0687500015
   3772,  -1.57500005,  0.075000003
   3773,  -1.57500005,  0.081249997
   3774,  -1.57500005, 0.0874999985
   3775,  -1.57500005,      0.09375
   3776,  -1.57500005,  0.100000001
   3777,  -1.57500005,  0.106250003
   3778,  -1.57500005,  0.112499997
   3779,  -1.57500005,  0.118749999
   3780,  -1.57500005,        0.125
   3781,  -1.57500005,  0.131249994
   3782,  -1.57500005,  0.137500003
   3783,  -1.57500005,  0.143749997
   3784,  -1.60000002, 0.00625000009
   3785,  -1.60000002, 0.0125000002
   3786,  -1.60000002, 0.0187500007
   3787,  -1.60000002, 0.0250000004
   3788,  -1.60000002,      0.03125
   3789,  -1.60000002, 0.0375000015
   3790,  -1.60000002, 0.0437499993
   3791,  -1.60000002, 0.0500000007
   3792,  -1.60000002, 0.0562499985
   3793,  -1.60000002,       0.0625
   3794,  -1.60000002, 0.0687500015
   3795,  -1.60000002,  0.075000003
   3796,  -1.60000002,  0.081249997
   3797,  -1.60000002, 0.0874999985
   3798,  -1.60000002,      0.09375
   3799,  -1.60000002,  0.100000001
   3800,  -1.60000002,  0.106250003
   3801,  -1.60000002,  0.112499997
   3802,  -1.60000002,  0.118749999
   3803,  -1.60000002,        0.125
   3804,  -1.60000002,  0.131249994
   3805,  -1.60000002,  0.137500003
   3806,  -1.60000002,  0.143749997
   3807,       -1.625, 0.00625000009
   3808,       -1.625, 0.0125000002
   3809,       -1.625, 0.0187500007
   3810,       -1.625, 0.0250000004
   3811,       -1.625,      0.03125
   3812,       -1.625, 0.0375000015
   3813,       -1.625, 0.0437499993
   3814,       -1.625, 0.0500000007
   3815,       -1.625, 0.0562499985
   3816,       -1.625,       0.0625
   3817,       -1.625, 0.0687500015
   3818,       -1.625,  0.075000003
   3819,       -1.625,  0.081249997
   3820,       -1.625, 0.0874999985
   3821,       -1.625,      0.09375
   3822,       -1.625,  0.100000001
   3823,       -1.625,  0.106250003
   3824,       -1.625,  0.112499997
   3825,       -1.625,  0.118749999
   3826,       -1.625,        0.125
   3827,       -1.625,  0.131249994
   3828,       -1.625,  0.137500003
   3829,       -1.625,  0.143749997
   3830,  -1.64999998, 0.00625000009
   3831,  -1.64999998, 0.0125000002
   3832,  -1.64999998, 0.0187500007
   3833,  -1.64999998, 0.0250000004
   3834,  -1.64999998,      0.03125
   3835,  -1.64999998, 0.0375000015
   3836,  -1.64999998, 0.0437499993
   3837,  -1.64999998, 0.0500000007
   3838,  -1.64999998, 0.0562499985
   3839,  -1.64999998,       0.0625
   3840,  -1.64999998, 0.0687500015
   3841,  -1.64999998,  0.075000003
   3842,  -1.64999998,  0.081249997
   3843,  -1.64999998, 0.0874999985
   3844,  -1.64999998,      0.09375
   3845,  -1.64999998,  0.100000001
   3846,  -1.64999998,  0.106250003
   3847,  -1.64999998,  0.112499997
   3848,  -1.64999998,  0.118749999
   3849,  -1.64999998,        0.125
   3850,  -1.64999998,  0.131249994
   3851,  -1.64999998,  0.137500003
   3852,  -1.64999998,  0.143749997
   3853,  -1.67499995, 0.00625000009
   3854,  -1.67499995, 0.0125000002
   3855,  -1.67499995, 0.0187500007
   3856,  -1.67499995, 0.0250000004
   3857,  -1.67499995,      0.03125
   3858,  -1.67499995, 0.0375000015
   3859,  -1.67499995, 0.0437499993
   3860,  -1.67499995, 0.0500000007
   3861,  -1.67499995, 0.0562499985
   3862,  -1.67499995,       0.0625
   3863,  -1.67499995, 0.0687500015
   3864,  -1.67499995,  0.075000003
   3865,  -1.67499995,  0.081249997
   3866,  -1.67499995, 0.0874999985
   3867,  -1.67499995,      0.09375
   3868,  -1.67499995,  0.100000001
   3869,  -1.67499995,  0.106250003
   3870,  -1.67499995,  0.112499997
   3871,  -1.67499995,  0.118749999
   3872,  -1.67499995,        0.125
   3873,  -1.67499995,  0.131249994
   3874,  -1.67499995,  0.137500003
   3875,  -1.67499995,  0.143749997
   3876,  -1.70000005, 0.00625000009
   3877,  -1.70000005, 0.0125000002
   3878,  -1.70000005, 0.0187500007
   3879,  -1.70000005, 0.0250000004
   3880,  -1.70000005,      0.03125
   3881,  -1.70000005, 0.0375000015
   3882,  -1.70000005, 0.0437499993
   3883,  -1.70000005, 0.0500000007
   3884,  -1.70000005, 0.0562499985
   3885,  -1.70000005,       0.0625
   3886,  -1.70000005, 0.0687500015
   3887,  -1.70000005,  0.075000003
   3888,  -1.70000005,  0.081249997
   3889,  -1.70000005, 0.0874999985
   3890,  -1.70000005,      0.09375
   3891,  -1.70000005,  0.100000001
   3892,  -1.70000005,  0.106250003
   3893,  -1.70000005,  0.112499997
   3894,  -1.70000005,  0.118749999
   3895,  -1.70000005,        0.125
   3896,  -1.70000005,  0.131249994
   3897,  -1.70000005,  0.137500003
   3898,  -1.70000005,  0.143749997
   3899,  -1.72500002, 0.00625000009
   3900,  -1.72500002, 0.0125000002
   3901,  -1.72500002, 0.0187500007
   3902,  -1.72500002, 0.0250000004
   3903,  -1.72500002,      0.03125
   3904,  -1.72500002, 0.0375000015
   3905,  -1.72500002, 0.0437499993
   3906,  -1.72500002, 0.0500000007
   3907,  -1.72500002, 0.0562499985
   3908,  -1.72500002,       0.0625
   3909,  -1.72500002, 0.0687500015
   3910,  -1.72500002,  0.075000003
   3911,  -1.72500002,  0.081249997
   3912,  -1.72500002, 0.0874999985
   3913,  -1.72500002,      0.09375
   3914,  -1.72500002,  0.100000001
   3915,  -1.72500002,  0.106250003
   3916,  -1.72500002,  0.112499997
   3917,  -1.72500002,  0.118749999
   3918,  -1.72500002,        0.125
   3919,  -1.72500002,  0.131249994
   3920,  -1.72500002,  0.137500003
   3921,  -1.72500002,  0.143749997
   3922,        -1.75, 0.00625000009
   3923,        -1.75, 0.0125000002
   3924,        -1.75, 0.0187500007
   3925,        -1.75, 0.0250000004
   3926,        -1.75,      0.03125
   3927,        -1.75, 0.0375000015
   3928,        -1.75, 0.0437499993
   3929,        -1.75, 0.0500000007
   3930,        -1.75, 0.0562499985
   3931,        -1.75,       0.0625
   3932,        -1.75, 0.0687500015
   3933,        -1.75,  0.075000003
   3934,        -1.75,  0.081249997
   3935,        -1.75, 0.0874999985
   3936,        -1.75,      0.09375
   3937,        -1.75,  0.100000001
   3938,        -1.75,  0.106250003
   3939,        -1.75,  0.112499997
   3940,        -1.75,  0.118749999
   3941,        -1.75,        0.125
   3942,        -1.75,  0.131249994
   3943,        -1.75,  0.137500003
   3944,        -1.75,  0.143749997
   3945,  -1.77499998, 0.00625000009
   3946,  -1.77499998, 0.0125000002
   3947,  -1.77499998, 0.0187500007
   3948,  -1.77499998, 0.0250000004
   3949,  -1.77499998,      0.03125
   3950,  -1.77499998, 0.0375000015
   3951,  -1.77499998, 0.0437499993
   3952,  -1.77499998, 0.0500000007
   3953,  -1.77499998, 0.0562499985
   3954,  -1.77499998,       0.0625
   3955,  -1.77499998, 0.0687500015
   3956,  -1.77499998,  0.075000003
   3957,  -1.77499998,  0.081249997
   3958,  -1.77499998, 0.0874999985
   3959,  -1.77499998,      0.09375
   3960,  -1.77499998,  0.100000001
   3961,  -1.77499998,  0.106250003
   3962,  -1.77499998,  0.112499997
   3963,  -1.77499998,  0.118749999
   3964,  -1.77499998,        0.125
   3965,  -1.77499998,  0.131249994
   3966,  -1.77499998,  0.137500003
   3967,  -1.77499998,  0.143749997
   3968,  -1.79999995, 0.00625000009
   3969,  -1.79999995, 0.0125000002
   3970,  -1.79999995, 0.0187500007
   3971,  -1.79999995, 0.0250000004
   3972,  -1.79999995,      0.03125
   3973,  -1.79999995, 0.0375000015
   3974,  -1.79999995, 0.0437499993
   3975,  -1.79999995, 0.0500000007
   3976,  -1.79999995, 0.0562499985
   3977,  -1.79999995,       0.0625
   3978,  -1.79999995, 0.0687500015
   3979,  -1.79999995,  0.075000003
   3980,  -1.79999995,  0.081249997
   3981,  -1.79999995, 0.0874999985
   3982,  -1.79999995,      0.09375
   3983,  -1.79999995,  0.100000001
   3984,  -1.79999995,  0.106250003
   3985,  -1.79999995,  0.112499997
   3986,  -1.79999995,  0.118749999
   3987,  -1.79999995,        0.125
   3988,  -1.79999995,  0.131249994
   3989,  -1.79999995,  0.137500003
   3990,  -1.79999995,  0.143749997
   3991,  -1.82500005, 0.00625000009
   3992,  -1.82500005, 0.0125000002
   3993,  -1.82500005, 0.0187500007
   3994,  -1.82500005, 0.0250000004
   3995,  -1.82500005,      0.03125
   3996,  -1.82500005, 0.0375000015
   3997,  -1.82500005, 0.0437499993
   3998,  -1.82500005, 0.0500000007
   3999,  -1.82500005, 0.0562499985
   4000,  -1.82500005,       0.0625
   4001,  -1.82500005, 0.0687500015
   4002,  -1.82500005,  0.075000003
   4003,  -1.82500005,  0.081249997
   4004,  -1.82500005, 0.0874999985
   4005,  -1.82500005,      0.09375
   4006,  -1.82500005,  0.100000001
   4007,  -1.82500005,  0.106250003
   4008,  -1.82500005,  0.112499997
   4009,  -1.82500005,  0.118749999
   4010,  -1.82500005,        0.125
   4011,  -1.82500005,  0.131249994
   4012,  -1.82500005,  0.137500003
   4013,  -1.82500005,  0.143749997
   4014,  -1.85000002, 0.00625000009
   4015,  -1.85000002, 0.0125000002
   4016,  -1.85000002, 0.0187500007
   4017,  -1.85000002, 0.0250000004
   4018,  -1.85000002,      0.03125
   4019,  -1.85000002, 0.0375000015
   4020,  -1.85000002, 0.0437499993
   4021,  -1.85000002, 0.0500000007
   4022,  -1.85000002, 0.0562499985
   4023,  -1.85000002,       0.0625
   4024,  -1.85000002, 0.0687500015
   4025,  -1.85000002,  0.075000003
   4026,  -1.85000002,  0.081249997
   4027,  -1.85000002, 0.0874999985
   4028,  -1.85000002,      0.09375
   4029,  -1.85000002,  0.100000001
   4030,  -1.85000002,  0.106250003
   4031,  -1.85000002,  0.112499997
   4032,  -1.85000002,  0.118749999
   4033,  -1.85000002,        0.125
   4034,  -1.85000002,  0.131249994
   4035,  -1.85000002,  0.137500003
   4036,  -1.85000002,  0.143749997
   4037,       -1.875, 0.00625000009
   4038,       -1.875, 0.0125000002
   4039,       -1.875, 0.0187500007
   4040,       -1.875, 0.0250000004
   4041,       -1.875,      0.03125
   4042,       -1.875, 0.0375000015
   4043,       -1.875, 0.0437499993
   4044,       -1.875, 0.0500000007
   4045,       -1.875, 0.0562499985
   4046,       -1.875,       0.0625
   4047,       -1.875, 0.0687500015
   4048,       -1.875,  0.075000003
   4049,       -1.875,  0.081249997
   4050,       -1.875, 0.0874999985
   4051,       -1.875,      0.09375
   4052,       -1.875,  0.100000001
   4053,       -1.875,  0.106250003
   4054,       -1.875,  0.112499997
   4055,       -1.875,  0.118749999
   4056,       -1.875,        0.125
   4057,       -1.875,  0.131249994
   4058,       -1.875,  0.137500003
   4059,       -1.875,  0.143749997
   4060,  -1.89999998, 0.00625000009
   4061,  -1.89999998, 0.0125000002
   4062,  -1.89999998, 0.0187500007
   4063,  -1.89999998, 0.0250000004
   4064,  -1.89999998,      0.03125
   4065,  -1.89999998, 0.0375000015
   4066,  -1.89999998, 0.0437499993
   4067,  -1.89999998, 0.0500000007
   4068,  -1.89999998, 0.0562499985
   4069,  -1.89999998,       0.0625
   4070,  -1.89999998, 0.0687500015
   4071,  -1.89999998,  0.075000003
   4072,  -1.89999998,  0.081249997
   4073,  -1.89999998, 0.0874999985
   4074,  -1.89999998,      0.09375
   4075,  -1.89999998,  0.100000001
   4076,  -1.89999998,  0.106250003
   4077,  -1.89999998,  0.112499997
   4078,  -1.89999998,  0.118749999
   4079,  -1.89999998,        0.125
   4080,  -1.89999998,  0.131249994
   4081,  -1.89999998,  0.137500003
   4082,  -1.89999998,  0.143749997
   4083,  -1.92499995, 0.00625000009
   4084,  -1.92499995, 0.0125000002
   4085,  -1.92499995, 0.0187500007
   4086,  -1.92499995, 0.0250000004
   4087,  -1.92499995,      0.03125
   4088,  -1.92499995, 0.0375000015
   4089,  -1.92499995, 0.0437499993
   4090,  -1.92499995, 0.0500000007
   4091,  -1.92499995, 0.0562499985
   4092,  -1.92499995,       0.0625
   4093,  -1.92499995, 0.0687500015
   4094,  -1.92499995,  0.075000003
   4095,  -1.92499995,  0.081249997
   4096,  -1.92499995, 0.0874999985
   4097,  -1.92499995,      0.09375
   4098,  -1.92499995,  0.100000001
   4099,  -1.92499995,  0.106250003
   4100,  -1.92499995,  0.112499997
   4101,  -1.92499995,  0.118749999
   4102,  -1.92499995,        0.125
   4103,  -1.92499995,  0.131249994
   4104,  -1.92499995,  0.137500003
   4105,  -1.92499995,  0.143749997
   4106,  -1.95000005, 0.00625000009
   4107,  -1.95000005, 0.0125000002
   4108,  -1.95000005, 0.0187500007
   4109,  -1.95000005, 0.0250000004
   4110,  -1.95000005,      0.03125
   4111,  -1.95000005, 0.0375000015
   4112,  -1.95000005, 0.0437499993
   4113,  -1.95000005, 0.0500000007
   4114,  -1.95000005, 0.0562499985
   4115,  -1.95000005,       0.0625
   4116,  -1.95000005, 0.0687500015
   4117,  -1.95000005,  0.075000003
   4118,  -1.95000005,  0.081249997
   4119,  -1.95000005, 0.0874999985
   4120,  -1.95000005,      0.09375
   4121,  -1.95000005,  0.100000001
   4122,  -1.95000005,  0.106250003
   4123,  -1.95000005,  0.112499997
   4124,  -1.95000005,  0.118749999
   4125,  -1.95000005,        0.125
   4126,  -1.95000005,  0.131249994
   4127,  -1.95000005,  0.137500003
   4128,  -1.95000005,  0.143749997
   4129,  -1.97500002, 0.00625000009
   4130,  -1.97500002, 0.0125000002
   4131,  -1.97500002, 0.0187500007
   4132,  -1.97500002, 0.0250000004
   4133,  -1.97500002,      0.03125
   4134,  -1.97500002, 0.0375000015
   4135,  -1.97500002, 0.0437499993
   4136,  -1.97500002, 0.0500000007
   4137,  -1.97500002, 0.0562499985
   4138,  -1.97500002,       0.0625
   4139,  -1.97500002, 0.0687500015
   4140,  -1.97500002,  0.075000003
   4141,  -1.97500002,  0.081249997
   4142,  -1.97500002, 0.0874999985
   4143,  -1.97500002,      0.09375
   4144,  -1.97500002,  0.100000001
   4145,  -1.97500002,  0.106250003
   4146,  -1.97500002,  0.112499997
   4147,  -1.97500002,  0.118749999
   4148,  -1.97500002,        0.125
   4149,  -1.97500002,  0.131249994
   4150,  -1.97500002,  0.137500003
   4151,  -1.97500002,  0.143749997
   4152,  -2.04999995, 0.00625000009
   4153,  -2.04999995, 0.0125000002
   4154,  -2.04999995, 0.0187500007
   4155,  -2.04999995, 0.0250000004
   4156,  -2.04999995,      0.03125
   4157,  -2.04999995, 0.0375000015
   4158,  -2.04999995, 0.0437499993
   4159,  -2.04999995, 0.0500000007
   4160,  -2.04999995, 0.0562499985
   4161,  -2.04999995,       0.0625
   4162,  -2.04999995, 0.0687500015
   4163,  -2.04999995,  0.075000003
   4164,  -2.04999995,  0.081249997
   4165,  -2.04999995, 0.0874999985
   4166,  -2.04999995,      0.09375
   4167,  -2.04999995,  0.100000001
   4168,  -2.04999995,  0.106250003
   4169,  -2.04999995,  0.112499997
   4170,  -2.04999995,  0.118749999
   4171,  -2.04999995,        0.125
   4172,  -2.04999995,  0.131249994
   4173,  -2.04999995,  0.137500003
   4174,  -2.04999995,  0.143749997
   4175,   -2.0999999, 0.00625000009
   4176,   -2.0999999, 0.0125000002
   4177,   -2.0999999, 0.0187500007
   4178,   -2.0999999, 0.0250000004
   4179,   -2.0999999,      0.03125
   4180,   -2.0999999, 0.0375000015
   4181,   -2.0999999, 0.0437499993
   4182,   -2.0999999, 0.0500000007
   4183,   -2.0999999, 0.0562499985
   4184,   -2.0999999,       0.0625
   4185,   -2.0999999, 0.0687500015
   4186,   -2.0999999,  0.075000003
   4187,   -2.0999999,  0.081249997
   4188,   -2.0999999, 0.0874999985
   4189,   -2.0999999,      0.09375
   4190,   -2.0999999,  0.100000001
   4191,   -2.0999999,  0.106250003
   4192,   -2.0999999,  0.112499997
   4193,   -2.0999999,  0.118749999
   4194,   -2.0999999,        0.125
   4195,   -2.0999999,  0.131249994
   4196,   -2.0999999,  0.137500003
   4197,   -2.0999999,  0.143749997
   4198,   -2.1500001, 0.00625000009
   4199,   -2.1500001, 0.0125000002
   4200,   -2.1500001, 0.0187500007
   4201,   -2.1500001, 0.0250000004
   4202,   -2.1500001,      0.03125
   4203,   -2.1500001, 0.0375000015
   4204,   -2.1500001, 0.0437499993
   4205,   -2.1500001, 0.0500000007
   4206,   -2.1500001, 0.0562499985
   4207,   -2.1500001,       0.0625
   4208,   -2.1500001, 0.0687500015
   4209,   -2.1500001,  0.075000003
   4210,   -2.1500001,  0.081249997
   4211,   -2.1500001, 0.0874999985
   4212,   -2.1500001,      0.09375
   4213,   -2.1500001,  0.100000001
   4214,   -2.1500001,  0.106250003
   4215,   -2.1500001,  0.112499997
   4216,   -2.1500001,  0.118749999
   4217,   -2.1500001,        0.125
   4218,   -2.1500001,  0.131249994
   4219,   -2.1500001,  0.137500003
   4220,   -2.1500001,  0.143749997
   4221,  -2.20000005, 0.00625000009
   4222,  -2.20000005, 0.0125000002
   4223,  -2.20000005, 0.0187500007
   4224,  -2.20000005, 0.0250000004
   4225,  -2.20000005,      0.03125
   4226,  -2.20000005, 0.0375000015
   4227,  -2.20000005, 0.0437499993
   4228,  -2.20000005, 0.0500000007
   4229,  -2.20000005, 0.0562499985
   4230,  -2.20000005,       0.0625
   4231,  -2.20000005, 0.0687500015
   4232,  -2.20000005,  0.075000003
   4233,  -2.20000005,  0.081249997
   4234,  -2.20000005, 0.0874999985
   4235,  -2.20000005,      0.09375
   4236,  -2.20000005,  0.100000001
   4237,  -2.20000005,  0.106250003
   4238,  -2.20000005,  0.112499997
   4239,  -2.20000005,  0.118749999
   4240,  -2.20000005,        0.125
   4241,  -2.20000005,  0.131249994
   4242,  -2.20000005,  0.137500003
   4243,  -2.20000005,  0.143749997
   4244,        -2.25, 0.00625000009
   4245,        -2.25, 0.0125000002
   4246,        -2.25, 0.0187500007
   4247,        -2.25, 0.0250000004
   4248,        -2.25,      0.03125
   4249,        -2.25, 0.0375000015
   4250,        -2.25, 0.0437499993
   4251,        -2.25, 0.0500000007
   4252,        -2.25, 0.0562499985
   4253,        -2.25,       0.0625
   4254,        -2.25, 0.0687500015
   4255,        -2.25,  0.075000003
   4256,        -2.25,  0.081249997
   4257,        -2.25, 0.0874999985
   4258,        -2.25,      0.09375
   4259,        -2.25,  0.100000001
   4260,        -2.25,  0.106250003
   4261,        -2.25,  0.112499997
   4262,        -2.25,  0.118749999
   4263,        -2.25,        0.125
   4264,        -2.25,  0.131249994
   4265,        -2.25,  0.137500003
   4266,        -2.25,  0.143749997
   4267,  -2.29999995, 0.00625000009
   4268,  -2.29999995, 0.0125000002
   4269,  -2.29999995, 0.0187500007
   4270,  -2.29999995, 0.0250000004
   4271,  -2.29999995,      0.03125
   4272,  -2.29999995, 0.0375000015
   4273,  -2.29999995, 0.0437499993
   4274,  -2.29999995, 0.0500000007
   4275,  -2.29999995, 0.0562499985
   4276,  -2.29999995,       0.0625
   4277,  -2.29999995, 0.0687500015
   4278,  -2.29999995,  0.075000003
   4279,  -2.29999995,  0.081249997
   4280,  -2.29999995, 0.0874999985
   4281,  -2.29999995,      0.09375
   4282,  -2.29999995,  0.100000001
   4283,  -2.29999995,  0.106250003
   4284,  -2.29999995,  0.112499997
   4285,  -2.29999995,  0.118749999
   4286,  -2.29999995,        0.125
   4287,  -2.29999995,  0.131249994
   4288,  -2.29999995,  0.137500003
   4289,  -2.29999995,  0.143749997
   4290,   -2.3499999, 0.00625000009
   4291,   -2.3499999, 0.0125000002
   4292,   -2.3499999, 0.0187500007
   4293,   -2.3499999, 0.0250000004
   4294,   -2.3499999,      0.03125
   4295,   -2.3499999, 0.0375000015
   4296,   -2.3499999, 0.0437499993
   4297,   -2.3499999, 0.0500000007
   4298,   -2.3499999, 0.0562499985
   4299,   -2.3499999,       0.0625
   4300,   -2.3499999, 0.0687500015
   4301,   -2.3499999,  0.075000003
   4302,   -2.3499999,  0.081249997
   4303,   -2.3499999, 0.0874999985
   4304,   -2.3499999,      0.09375
   4305,   -2.3499999,  0.100000001
   4306,   -2.3499999,  0.106250003
   4307,   -2.3499999,  0.112499997
   4308,   -2.3499999,  0.118749999
   4309,   -2.3499999,        0.125
   4310,   -2.3499999,  0.131249994
   4311,   -2.3499999,  0.137500003
   4312,   -2.3499999,  0.143749997
   4313,   -2.4000001, 0.00625000009
   4314,   -2.4000001, 0.0125000002
   4315,   -2.4000001, 0.0187500007
   4316,   -2.4000001, 0.0250000004
   4317,   -2.4000001,      0.03125
   4318,   -2.4000001, 0.0375000015
   4319,   -2.4000001, 0.0437499993
   4320,   -2.4000001, 0.0500000007
   4321,   -2.4000001, 0.0562499985
   4322,   -2.4000001,       0.0625
   4323,   -2.4000001, 0.0687500015
   4324,   -2.4000001,  0.075000003
   4325,   -2.4000001,  0.081249997
   4326,   -2.4000001, 0.0874999985
   4327,   -2.4000001,      0.09375
   4328,   -2.4000001,  0.100000001
   4329,   -2.4000001,  0.106250003
   4330,   -2.4000001,  0.112499997
   4331,   -2.4000001,  0.118749999
   4332,   -2.4000001,        0.125
   4333,   -2.4000001,  0.131249994
   4334,   -2.4000001,  0.137500003
   4335,   -2.4000001,  0.143749997
   4336,  -2.45000005, 0.00625000009
   4337,  -2.45000005, 0.0125000002
   4338,  -2.45000005, 0.0187500007
   4339,  -2.45000005, 0.0250000004
   4340,  -2.45000005,      0.03125
   4341,  -2.45000005, 0.0375000015
   4342,  -2.45000005, 0.0437499993
   4343,  -2.45000005, 0.0500000007
   4344,  -2.45000005, 0.0562499985
   4345,  -2.45000005,       0.0625
   4346,  -2.45000005, 0.0687500015
   4347,  -2.45000005,  0.075000003
   4348,  -2.45000005,  0.081249997
   4349,  -2.45000005, 0.0874999985
   4350,  -2.45000005,      0.09375
   4351,  -2.45000005,  0.100000001
   4352,  -2.45000005,  0.106250003
   4353,  -2.45000005,  0.112499997
   4354,  -2.45000005,  0.118749999
   4355,  -2.45000005,        0.125
   4356,  -2.45000005,  0.131249994
   4357,  -2.45000005,  0.137500003
   4358,  -2.45000005,  0.143749997
   4359,         -2.5, 0.00625000009
   4360,         -2.5, 0.0125000002
   4361,         -2.5, 0.0187500007
   4362,         -2.5, 0.0250000004
   4363,         -2.5,      0.03125
   4364,         -2.5, 0.0375000015
   4365,         -2.5, 0.0437499993
   4366,         -2.5, 0.0500000007
   4367,         -2.5, 0.0562499985
   4368,         -2.5,       0.0625
   4369,         -2.5, 0.0687500015
   4370,         -2.5,  0.075000003
   4371,         -2.5,  0.081249997
   4372,         -2.5, 0.0874999985
   4373,         -2.5,      0.09375
   4374,         -2.5,  0.100000001
   4375,         -2.5,  0.106250003
   4376,         -2.5,  0.112499997
   4377,         -2.5,  0.118749999
   4378,         -2.5,        0.125
   4379,         -2.5,  0.131249994
   4380,         -2.5,  0.137500003
   4381,         -2.5,  0.143749997
   4382,  -2.54999995, 0.00625000009
   4383,  -2.54999995, 0.0125000002
   4384,  -2.54999995, 0.0187500007
   4385,  -2.54999995, 0.0250000004
   4386,  -2.54999995,      0.03125
   4387,  -2.54999995, 0.0375000015
   4388,  -2.54999995, 0.0437499993
   4389,  -2.54999995, 0.0500000007
   4390,  -2.54999995, 0.0562499985
   4391,  -2.54999995,       0.0625
   4392,  -2.54999995, 0.0687500015
   4393,  -2.54999995,  0.075000003
   4394,  -2.54999995,  0.081249997
   4395,  -2.54999995, 0.0874999985
   4396,  -2.54999995,      0.09375
   4397,  -2.54999995,  0.100000001
   4398,  -2.54999995,  0.106250003
   4399,  -2.54999995,  0.112499997
   4400,  -2.54999995,  0.118749999
   4401,  -2.54999995,        0.125
   4402,  -2.54999995,  0.131249994
   4403,  -2.54999995,  0.137500003
   4404,  -2.54999995,  0.143749997
   4405,   -2.5999999, 0.00625000009
   4406,   -2.5999999, 0.0125000002
   4407,   -2.5999999, 0.0187500007
   4408,   -2.5999999, 0.0250000004
   4409,   -2.5999999,      0.03125
   4410,   -2.5999999, 0.0375000015
   4411,   -2.5999999, 0.0437499993
   4412,   -2.5999999, 0.0500000007
   4413,   -2.5999999, 0.0562499985
   4414,   -2.5999999,       0.0625
   4415,   -2.5999999, 0.0687500015
   4416,   -2.5999999,  0.075000003
   4417,   -2.5999999,  0.081249997
   4418,   -2.5999999, 0.0874999985
   4419,   -2.5999999,      0.09375
   4420,   -2.5999999,  0.100000001
   4421,   -2.5999999,  0.106250003
   4422,   -2.5999999,  0.112499997
   4423,   -2.5999999,  0.118749999
   4424,   -2.5999999,        0.125
   4425,   -2.5999999,  0.131249994
   4426,   -2.5999999,  0.137500003
   4427,   -2.5999999,  0.143749997
   4428,   -2.6500001, 0.00625000009
   4429,   -2.6500001, 0.0125000002
   4430,   -2.6500001, 0.0187500007
   4431,   -2.6500001, 0.0250000004
   4432,   -2.6500001,      0.03125
   4433,   -2.6500001, 0.0375000015
   4434,   -2.6500001, 0.0437499993
   4435,   -2.6500001, 0.0500000007
   4436,   -2.6500001, 0.0562499985
   4437,   -2.6500001,       0.0625
   4438,   -2.6500001, 0.0687500015
   4439,   -2.6500001,  0.075000003
   4440,   -2.6500001,  0.081249997
   4441,   -2.6500001, 0.0874999985
   4442,   -2.6500001,      0.09375
   4443,   -2.6500001,  0.100000001
   4444,   -2.6500001,  0.106250003
   4445,   -2.6500001,  0.112499997
   4446,   -2.6500001,  0.118749999
   4447,   -2.6500001,        0.125
   4448,   -2.6500001,  0.131249994
   4449,   -2.6500001,  0.137500003
   4450,   -2.6500001,  0.143749997
   4451,  -2.70000005, 0.00625000009
   4452,  -2.70000005, 0.0125000002
   4453,  -2.70000005, 0.0187500007
   4454,  -2.70000005, 0.0250000004
   4455,  -2.70000005,      0.03125
   4456,  -2.70000005, 0.0375000015
   4457,  -2.70000005, 0.0437499993
   4458,  -2.70000005, 0.0500000007
   4459,  -2.70000005, 0.0562499985
   4460,  -2.70000005,       0.0625
   4461,  -2.70000005, 0.0687500015
   4462,  -2.70000005,  0.075000003
   4463,  -2.70000005,  0.081249997
   4464,  -2.70000005, 0.0874999985
   4465,  -2.70000005,      0.09375
   4466,  -2.70000005,  0.100000001
   4467,  -2.70000005,  0.106250003
   4468,  -2.70000005,  0.112499997
   4469,  -2.70000005,  0.118749999
   4470,  -2.70000005,        0.125
   4471,  -2.70000005,  0.131249994
   4472,  -2.70000005,  0.137500003
   4473,  -2.70000005,  0.143749997
   4474,        -2.75, 0.00625000009
   4475,        -2.75, 0.0125000002
   4476,        -2.75, 0.0187500007
   4477,        -2.75, 0.0250000004
   4478,        -2.75,      0.03125
   4479,        -2.75, 0.0375000015
   4480,        -2.75, 0.0437499993
   4481,        -2.75, 0.0500000007
   4482,        -2.75, 0.0562499985
   4483,        -2.75,       0.0625
   4484,        -2.75, 0.0687500015
   4485,        -2.75,  0.075000003
   4486,        -2.75,  0.081249997
   4487,        -2.75, 0.0874999985
   4488,        -2.75,      0.09375
   4489,        -2.75,  0.100000001
   4490,        -2.75,  0.106250003
   4491,        -2.75,  0.112499997
   4492,        -2.75,  0.118749999
   4493,        -2.75,        0.125
   4494,        -2.75,  0.131249994
   4495,        -2.75,  0.137500003
   4496,        -2.75,  0.143749997
   4497,  -2.79999995, 0.00625000009
   4498,  -2.79999995, 0.0125000002
   4499,  -2.79999995, 0.0187500007
   4500,  -2.79999995, 0.0250000004
   4501,  -2.79999995,      0.03125
   4502,  -2.79999995, 0.0375000015
   4503,  -2.79999995, 0.0437499993
   4504,  -2.79999995, 0.0500000007
   4505,  -2.79999995, 0.0562499985
   4506,  -2.79999995,       0.0625
   4507,  -2.79999995, 0.0687500015
   4508,  -2.79999995,  0.075000003
   4509,  -2.79999995,  0.081249997
   4510,  -2.79999995, 0.0874999985
   4511,  -2.79999995,      0.09375
   4512,  -2.79999995,  0.100000001
   4513,  -2.79999995,  0.106250003
   4514,  -2.79999995,  0.112499997
   4515,  -2.79999995,  0.118749999
   4516,  -2.79999995,        0.125
   4517,  -2.79999995,  0.131249994
   4518,  -2.79999995,  0.137500003
   4519,  -2.79999995,  0.143749997
   4520,   -2.8499999, 0.00625000009
   4521,   -2.8499999, 0.0125000002
   4522,   -2.8499999, 0.0187500007
   4523,   -2.8499999, 0.0250000004
   4524,   -2.8499999,      0.03125
   4525,   -2.8499999, 0.0375000015
   4526,   -2.8499999, 0.0437499993
   4527,   -2.8499999, 0.0500000007
   4528,   -2.8499999, 0.0562499985
   4529,   -2.8499999,       0.0625
   4530,   -2.8499999, 0.0687500015
   4531,   -2.8499999,  0.075000003
   4532,   -2.8499999,  0.081249997
   4533,   -2.8499999, 0.0874999985
   4534,   -2.8499999,      0.09375
   4535,   -2.8499999,  0.100000001
   4536,   -2.8499999,  0.106250003
   4537,   -2.8499999,  0.112499997
   4538,   -2.8499999,  0.118749999
   4539,   -2.8499999,        0.125
   4540,   -2.8499999,  0.131249994
   4541,   -2.8499999,  0.137500003
   4542,   -2.8499999,  0.143749997
   4543,   -2.9000001, 0.00625000009
   4544,   -2.9000001, 0.0125000002
   4545,   -2.9000001, 0.0187500007
   4546,   -2.9000001, 0.0250000004
   4547,   -2.9000001,      0.03125
   4548,   -2.9000001, 0.0375000015
   4549,   -2.9000001, 0.0437499993
   4550,   -2.9000001, 0.0500000007
   4551,   -2.9000001, 0.0562499985
   4552,   -2.9000001,       0.0625
   4553,   -2.9000001, 0.0687500015
   4554,   -2.9000001,  0.075000003
   4555,   -2.9000001,  0.081249997
   4556,   -2.9000001, 0.0874999985
   4557,   -2.9000001,      0.09375
   4558,   -2.9000001,  0.100000001
   4559,   -2.9000001,  0.106250003
   4560,   -2.9000001,  0.112499997
   4561,   -2.9000001,  0.118749999
   4562,   -2.9000001,        0.125
   4563,   -2.9000001,  0.131249994
   4564,   -2.9000001,  0.137500003
   4565,   -2.9000001,  0.143749997
   4566,  -2.95000005, 0.00625000009
   4567,  -2.95000005, 0.0125000002
   4568,  -2.95000005, 0.0187500007
   4569,  -2.95000005, 0.0250000004
   4570,  -2.95000005,      0.03125
   4571,  -2.95000005, 0.0375000015
   4572,  -2.95000005, 0.0437499993
   4573,  -2.95000005, 0.0500000007
   4574,  -2.95000005, 0.0562499985
   4575,  -2.95000005,       0.0625
   4576,  -2.95000005, 0.0687500015
   4577,  -2.95000005,  0.075000003
   4578,  -2.95000005,  0.081249997
   4579,  -2.95000005, 0.0874999985
   4580,  -2.95000005,      0.09375
   4581,  -2.95000005,  0.100000001
   4582,  -2.95000005,  0.106250003
   4583,  -2.95000005,  0.112499997
   4584,  -2.95000005,  0.118749999
   4585,  -2.95000005,        0.125
   4586,  -2.95000005,  0.131249994
   4587,  -2.95000005,  0.137500003
   4588,  -2.95000005,  0.143749997
   4589,   2.04999995,  0.143749997
   4590,   2.04999995,  0.137500003
   4591,   2.04999995,  0.131249994
   4592,   2.04999995,        0.125
   4593,   2.04999995,  0.118749999
   4594,   2.04999995,  0.112499997
   4595,   2.04999995,  0.106250003
   4596,   2.04999995,  0.100000001
   4597,   2.04999995,      0.09375
   4598,   2.04999995, 0.0874999985
   4599,   2.04999995,  0.081249997
   4600,   2.04999995,  0.075000003
   4601,   2.04999995, 0.0687500015
   4602,   2.04999995,       0.0625
   4603,   2.04999995, 0.0562499985
   4604,   2.04999995, 0.0500000007
   4605,   2.04999995, 0.0437499993
   4606,   2.04999995, 0.0375000015
   4607,   2.04999995,      0.03125
   4608,   2.04999995, 0.0250000004
   4609,   2.04999995, 0.0187500007
   4610,   2.04999995, 0.0125000002
   4611,   2.04999995, 0.00625000009
   4612,    2.0999999,  0.143749997
   4613,    2.0999999,  0.137500003
   4614,    2.0999999,  0.131249994
   4615,    2.0999999,        0.125
   4616,    2.0999999,  0.118749999
   4617,    2.0999999,  0.112499997
   4618,    2.0999999,  0.106250003
   4619,    2.0999999,  0.100000001
   4620,    2.0999999,      0.09375
   4621,    2.0999999, 0.0874999985
   4622,    2.0999999,  0.081249997
   4623,    2.0999999,  0.075000003
   4624,    2.0999999, 0.0687500015
   4625,    2.0999999,       0.0625
   4626,    2.0999999, 0.0562499985
   4627,    2.0999999, 0.0500000007
   4628,    2.0999999, 0.0437499993
   4629,    2.0999999, 0.0375000015
   4630,    2.0999999,      0.03125
   4631,    2.0999999, 0.0250000004
   4632,    2.0999999, 0.0187500007
   4633,    2.0999999, 0.0125000002
   4634,    2.0999999, 0.00625000009
   4635,    2.1500001,  0.143749997
   4636,    2.1500001,  0.137500003
   4637,    2.1500001,  0.131249994
   4638,    2.1500001,        0.125
   4639,    2.1500001,  0.118749999
   4640,    2.1500001,  0.112499997
   4641,    2.1500001,  0.106250003
   4642,    2.1500001,  0.100000001
   4643,    2.1500001,      0.09375
   4644,    2.1500001, 0.0874999985
   4645,    2.1500001,  0.081249997
   4646,    2.1500001,  0.075000003
   4647,    2.1500001, 0.0687500015
   4648,    2.1500001,       0.0625
   4649,    2.1500001, 0.0562499985
   4650,    2.1500001, 0.0500000007
   4651,    2.1500001, 0.0437499993
   4652,    2.1500001, 0.0375000015
   4653,    2.1500001,      0.03125
   4654,    2.1500001, 0.0250000004
   4655,    2.1500001, 0.0187500007
   4656,    2.1500001, 0.0125000002
   4657,    2.1500001, 0.00625000009
   4658,   2.20000005,  0.143749997
   4659,   2.20000005,  0.137500003
   4660,   2.20000005,  0.131249994
   4661,   2.20000005,        0.125
   4662,   2.20000005,  0.118749999
   4663,   2.20000005,  0.112499997
   4664,   2.20000005,  0.106250003
   4665,   2.20000005,  0.100000001
   4666,   2.20000005,      0.09375
   4667,   2.20000005, 0.0874999985
   4668,   2.20000005,  0.081249997
   4669,   2.20000005,  0.075000003
   4670,   2.20000005, 0.0687500015
   4671,   2.20000005,       0.0625
   4672,   2.20000005, 0.0562499985
   4673,   2.20000005, 0.0500000007
   4674,   2.20000005, 0.0437499993
   4675,   2.20000005, 0.0375000015
   4676,   2.20000005,      0.03125
   4677,   2.20000005, 0.0250000004
   4678,   2.20000005, 0.0187500007
   4679,   2.20000005, 0.0125000002
   4680,   2.20000005, 0.00625000009
   4681,         2.25,  0.143749997
   4682,         2.25,  0.137500003
   4683,         2.25,  0.131249994
   4684,         2.25,        0.125
   4685,         2.25,  0.118749999
   4686,         2.25,  0.112499997
   4687,         2.25,  0.106250003
   4688,         2.25,  0.100000001
   4689,         2.25,      0.09375
   4690,         2.25, 0.0874999985
   4691,         2.25,  0.081249997
   4692,         2.25,  0.075000003
   4693,         2.25, 0.0687500015
   4694,         2.25,       0.0625
   4695,         2.25, 0.0562499985
   4696,         2.25, 0.0500000007
   4697,         2.25, 0.0437499993
   4698,         2.25, 0.0375000015
   4699,         2.25,      0.03125
   4700,         2.25, 0.0250000004
   4701,         2.25, 0.0187500007
   4702,         2.25, 0.0125000002
   4703,         2.25, 0.00625000009
   4704,   2.29999995,  0.143749997
   4705,   2.29999995,  0.137500003
   4706,   2.29999995,  0.131249994
   4707,   2.29999995,        0.125
   4708,   2.29999995,  0.118749999
   4709,   2.29999995,  0.112499997
   4710,   2.29999995,  0.106250003
   4711,   2.29999995,  0.100000001
   4712,   2.29999995,      0.09375
   4713,   2.29999995, 0.0874999985
   4714,   2.29999995,  0.081249997
   4715,   2.29999995,  0.075000003
   4716,   2.29999995, 0.0687500015
   4717,   2.29999995,       0.0625
   4718,   2.29999995, 0.0562499985
   4719,   2.29999995, 0.0500000007
   4720,   2.29999995, 0.0437499993
   4721,   2.29999995, 0.0375000015
   4722,   2.29999995,      0.03125
   4723,   2.29999995, 0.0250000004
   4724,   2.29999995, 0.0187500007
   4725,   2.29999995, 0.0125000002
   4726,   2.29999995, 0.00625000009
   4727,    2.3499999,  0.143749997
   4728,    2.3499999,  0.137500003
   4729,    2.3499999,  0.131249994
   4730,    2.3499999,        0.125
   4731,    2.3499999,  0.118749999
   4732,    2.3499999,  0.112499997
   4733,    2.3499999,  0.106250003
   4734,    2.3499999,  0.100000001
   4735,    2.3499999,      0.09375
   4736,    2.3499999, 0.0874999985
   4737,    2.3499999,  0.081249997
   4738,    2.3499999,  0.075000003
   4739,    2.3499999, 0.0687500015
   4740,    2.3499999,       0.0625
   4741,    2.3499999, 0.0562499985
   4742,    2.3499999, 0.0500000007
   4743,    2.3499999, 0.0437499993
   4744,    2.3499999, 0.0375000015
   4745,    2.3499999,      0.03125
   4746,    2.3499999, 0.0250000004
   4747,    2.3499999, 0.0187500007
   4748,    2.3499999, 0.0125000002
   4749,    2.3499999, 0.00625000009
   4750,    2.4000001,  0.143749997
   4751,    2.4000001,  0.137500003
   4752,    2.4000001,  0.131249994
   4753,    2.4000001,        0.125
   4754,    2.4000001,  0.118749999
   4755,    2.4000001,  0.112499997
   4756,    2.4000001,  0.106250003
   4757,    2.4000001,  0.100000001
   4758,    2.4000001,      0.09375
   4759,    2.4000001, 0.0874999985
   4760,    2.4000001,  0.081249997
   4761,    2.4000001,  0.075000003
   4762,    2.4000001, 0.0687500015
   4763,    2.4000001,       0.0625
   4764,    2.4000001, 0.0562499985
   4765,    2.4000001, 0.0500000007
   4766,    2.4000001, 0.0437499993
   4767,    2.4000001, 0.0375000015
   4768,    2.4000001,      0.03125
   4769,    2.4000001, 0.0250000004
   4770,    2.4000001, 0.0187500007
   4771,    2.4000001, 0.0125000002
   4772,    2.4000001, 0.00625000009
   4773,   2.45000005,  0.143749997
   4774,   2.45000005,  0.137500003
   4775,   2.45000005,  0.131249994
   4776,   2.45000005,        0.125
   4777,   2.45000005,  0.118749999
   4778,   2.45000005,  0.112499997
   4779,   2.45000005,  0.106250003
   4780,   2.45000005,  0.100000001
   4781,   2.45000005,      0.09375
   4782,   2.45000005, 0.0874999985
   4783,   2.45000005,  0.081249997
   4784,   2.45000005,  0.075000003
   4785,   2.45000005, 0.0687500015
   4786,   2.45000005,       0.0625
   4787,   2.45000005, 0.0562499985
   4788,   2.45000005, 0.0500000007
   4789,   2.45000005, 0.0437499993
   4790,   2.45000005, 0.0375000015
   4791,   2.45000005,      0.03125
   4792,   2.45000005, 0.0250000004
   4793,   2.45000005, 0.0187500007
   4794,   2.45000005, 0.0125000002
   4795,   2.45000005, 0.00625000009
   4796,          2.5,  0.143749997
   4797,          2.5,  0.137500003
   4798,          2.5,  0.131249994
   4799,          2.5,        0.125
   4800,          2.5,  0.118749999
   4801,          2.5,  0.112499997
   4802,          2.5,  0.106250003
   4803,          2.5,  0.100000001
   4804,          2.5,      0.09375
   4805,          2.5, 0.0874999985
   4806,          2.5,  0.081249997
   4807,          2.5,  0.075000003
   4808,          2.5, 0.0687500015
   4809,          2.5,       0.0625
   4810,          2.5, 0.0562499985
   4811,          2.5, 0.0500000007
   4812,          2.5, 0.0437499993
   4813,          2.5, 0.0375000015
   4814,          2.5,      0.03125
   4815,          2.5, 0.0250000004
   4816,          2.5, 0.0187500007
   4817,          2.5, 0.0125000002
   4818,          2.5, 0.00625000009
   4819,   2.54999995,  0.143749997
   4820,   2.54999995,  0.137500003
   4821,   2.54999995,  0.131249994
   4822,   2.54999995,        0.125
   4823,   2.54999995,  0.118749999
   4824,   2.54999995,  0.112499997
   4825,   2.54999995,  0.106250003
   4826,   2.54999995,  0.100000001
   4827,   2.54999995,      0.09375
   4828,   2.54999995, 0.0874999985
   4829,   2.54999995,  0.081249997
   4830,   2.54999995,  0.075000003
   4831,   2.54999995, 0.0687500015
   4832,   2.54999995,       0.0625
   4833,   2.54999995, 0.0562499985
   4834,   2.54999995, 0.0500000007
   4835,   2.54999995, 0.0437499993
   4836,   2.54999995, 0.0375000015
   4837,   2.54999995,      0.03125
   4838,   2.54999995, 0.0250000004
   4839,   2.54999995, 0.0187500007
   4840,   2.54999995, 0.0125000002
   4841,   2.54999995, 0.00625000009
   4842,    2.5999999,  0.143749997
   4843,    2.5999999,  0.137500003
   4844,    2.5999999,  0.131249994
   4845,    2.5999999,        0.125
   4846,    2.5999999,  0.118749999
   4847,    2.5999999,  0.112499997
   4848,    2.5999999,  0.106250003
   4849,    2.5999999,  0.100000001
   4850,    2.5999999,      0.09375
   4851,    2.5999999, 0.0874999985
   4852,    2.5999999,  0.081249997
   4853,    2.5999999,  0.075000003
   4854,    2.5999999, 0.0687500015
   4855,    2.5999999,       0.0625
   4856,    2.5999999, 0.0562499985
   4857,    2.5999999, 0.0500000007
   4858,    2.5999999, 0.0437499993
   4859,    2.5999999, 0.0375000015
   4860,    2.5999999,      0.03125
   4861,    2.5999999, 0.0250000004
   4862,    2.5999999, 0.0187500007
   4863,    2.5999999, 0.0125000002
   4864,    2.5999999, 0.00625000009
   4865,    2.6500001,  0.143749997
   4866,    2.6500001,  0.137500003
   4867,    2.6500001,  0.131249994
   4868,    2.6500001,        0.125
   4869,    2.6500001,  0.118749999
   4870,    2.6500001,  0.112499997
   4871,    2.6500001,  0.106250003
   4872,    2.6500001,  0.100000001
   4873,    2.6500001,      0.09375
   4874,    2.6500001, 0.0874999985
   4875,    2.6500001,  0.081249997
   4876,    2.6500001,  0.075000003
   4877,    2.6500001, 0.0687500015
   4878,    2.6500001,       0.0625
   4879,    2.6500001, 0.0562499985
   4880,    2.6500001, 0.0500000007
   4881,    2.6500001, 0.0437499993
   4882,    2.6500001, 0.0375000015
   4883,    2.6500001,      0.03125
   4884,    2.6500001, 0.0250000004
   4885,    2.6500001, 0.0187500007
   4886,    2.6500001, 0.0125000002
   4887,    2.6500001, 0.00625000009
   4888,   2.70000005,  0.143749997
   4889,   2.70000005,  0.137500003
   4890,   2.70000005,  0.131249994
   4891,   2.70000005,        0.125
   4892,   2.70000005,  0.118749999
   4893,   2.70000005,  0.112499997
   4894,   2.70000005,  0.106250003
   4895,   2.70000005,  0.100000001
   4896,   2.70000005,      0.09375
   4897,   2.70000005, 0.0874999985
   4898,   2.70000005,  0.081249997
   4899,   2.70000005,  0.075000003
   4900,   2.70000005, 0.0687500015
   4901,   2.70000005,       0.0625
   4902,   2.70000005, 0.0562499985
   4903,   2.70000005, 0.0500000007
   4904,   2.70000005, 0.0437499993
   4905,   2.70000005, 0.0375000015
   4906,   2.70000005,      0.03125
   4907,   2.70000005, 0.0250000004
   4908,   2.70000005, 0.0187500007
   4909,   2.70000005, 0.0125000002
   4910,   2.70000005, 0.00625000009
   4911,         2.75,  0.143749997
   4912,         2.75,  0.137500003
   4913,         2.75,  0.131249994
   4914,         2.75,        0.125
   4915,         2.75,  0.118749999
   4916,         2.75,  0.112499997
   4917,         2.75,  0.106250003
   4918,         2.75,  0.100000001
   4919,         2.75,      0.09375
   4920,         2.75, 0.0874999985
   4921,         2.75,  0.081249997
   4922,         2.75,  0.075000003
   4923,         2.75, 0.0687500015
   4924,         2.75,       0.0625
   4925,         2.75, 0.0562499985
   4926,         2.75, 0.0500000007
   4927,         2.75, 0.0437499993
   4928,         2.75, 0.0375000015
   4929,         2.75,      0.03125
   4930,         2.75, 0.0250000004
   4931,         2.75, 0.0187500007
   4932,         2.75, 0.0125000002
   4933,         2.75, 0.00625000009
   4934,   2.79999995,  0.143749997
   4935,   2.79999995,  0.137500003
   4936,   2.79999995,  0.131249994
   4937,   2.79999995,        0.125
   4938,   2.79999995,  0.118749999
   4939,   2.79999995,  0.112499997
   4940,   2.79999995,  0.106250003
   4941,   2.79999995,  0.100000001
   4942,   2.79999995,      0.09375
   4943,   2.79999995, 0.0874999985
   4944,   2.79999995,  0.081249997
   4945,   2.79999995,  0.075000003
   4946,   2.79999995, 0.0687500015
   4947,   2.79999995,       0.0625
   4948,   2.79999995, 0.0562499985
   4949,   2.79999995, 0.0500000007
   4950,   2.79999995, 0.0437499993
   4951,   2.79999995, 0.0375000015
   4952,   2.79999995,      0.03125
   4953,   2.79999995, 0.0250000004
   4954,   2.79999995, 0.0187500007
   4955,   2.79999995, 0.0125000002
   4956,   2.79999995, 0.00625000009
   4957,    2.8499999,  0.143749997
   4958,    2.8499999,  0.137500003
   4959,    2.8499999,  0.131249994
   4960,    2.8499999,        0.125
   4961,    2.8499999,  0.118749999
   4962,    2.8499999,  0.112499997
   4963,    2.8499999,  0.106250003
   4964,    2.8499999,  0.100000001
   4965,    2.8499999,      0.09375
   4966,    2.8499999, 0.0874999985
   4967,    2.8499999,  0.081249997
   4968,    2.8499999,  0.075000003
   4969,    2.8499999, 0.0687500015
   4970,    2.8499999,       0.0625
   4971,    2.8499999, 0.0562499985
   4972,    2.8499999, 0.0500000007
   4973,    2.8499999, 0.0437499993
   4974,    2.8499999, 0.0375000015
   4975,    2.8499999,      0.03125
   4976,    2.8499999, 0.0250000004
   4977,    2.8499999, 0.0187500007
   4978,    2.8499999, 0.0125000002
   4979,    2.8499999, 0.00625000009
   4980,    2.9000001,  0.143749997
   4981,    2.9000001,  0.137500003
   4982,    2.9000001,  0.131249994
   4983,    2.9000001,        0.125
   4984,    2.9000001,  0.118749999
   4985,    2.9000001,  0.112499997
   4986,    2.9000001,  0.106250003
   4987,    2.9000001,  0.100000001
   4988,    2.9000001,      0.09375
   4989,    2.9000001, 0.0874999985
   4990,    2.9000001,  0.081249997
   4991,    2.9000001,  0.075000003
   4992,    2.9000001, 0.0687500015
   4993,    2.9000001,       0.0625
   4994,    2.9000001, 0.0562499985
   4995,    2.9000001, 0.0500000007
   4996,    2.9000001, 0.0437499993
   4997,    2.9000001, 0.0375000015
   4998,    2.9000001,      0.03125
   4999,    2.9000001, 0.0250000004
   5000,    2.9000001, 0.0187500007
   5001,    2.9000001, 0.0125000002
   5002,    2.9000001, 0.00625000009
   5003,   2.95000005,  0.143749997
   5004,   2.95000005,  0.137500003
   5005,   2.95000005,  0.131249994
   5006,   2.95000005,        0.125
   5007,   2.95000005,  0.118749999
   5008,   2.95000005,  0.112499997
   5009,   2.95000005,  0.106250003
   5010,   2.95000005,  0.100000001
   5011,   2.95000005,      0.09375
   5012,   2.95000005, 0.0874999985
   5013,   2.95000005,  0.081249997
   5014,   2.95000005,  0.075000003
   5015,   2.95000005, 0.0687500015
   5016,   2.95000005,       0.0625
   5017,   2.95000005, 0.0562499985
   5018,   2.95000005, 0.0500000007
   5019,   2.95000005, 0.0437499993
   5020,   2.95000005, 0.0375000015
   5021,   2.95000005,      0.03125
   5022,   2.95000005, 0.0250000004
   5023,   2.95000005, 0.0187500007
   5024,   2.95000005, 0.0125000002
   5025,   2.95000005, 0.00625000009
*Element, type=CPE4R
  1,    1,   15,  564,  138
  2,   15,   16,  565,  564
  3,   16,   17,  566,  565
  4,   17,   18,  567,  566
  5,   18,   19,  568,  567
  6,   19,   20,  569,  568
  7,   20,   21,  570,  569
  8,   21,   22,  571,  570
  9,   22,   23,  572,  571
 10,   23,   24,  573,  572
 11,   24,   25,  574,  573
 12,   25,   26,  575,  574
 13,   26,   27,  576,  575
 14,   27,   28,  577,  576
 15,   28,   29,  578,  577
 16,   29,   30,  579,  578
 17,   30,   31,  580,  579
 18,   31,   32,  581,  580
 19,   32,   33,  582,  581
 20,   33,   34,  583,  582
 21,   34,   35,  584,  583
 22,   35,   36,  585,  584
 23,   36,   37,  586,  585
 24,   37,    2,   38,  586
 25,  138,  564,  587,  137
 26,  564,  565,  588,  587
 27,  565,  566,  589,  588
 28,  566,  567,  590,  589
 29,  567,  568,  591,  590
 30,  568,  569,  592,  591
 31,  569,  570,  593,  592
 32,  570,  571,  594,  593
 33,  571,  572,  595,  594
 34,  572,  573,  596,  595
 35,  573,  574,  597,  596
 36,  574,  575,  598,  597
 37,  575,  576,  599,  598
 38,  576,  577,  600,  599
 39,  577,  578,  601,  600
 40,  578,  579,  602,  601
 41,  579,  580,  603,  602
 42,  580,  581,  604,  603
 43,  581,  582,  605,  604
 44,  582,  583,  606,  605
 45,  583,  584,  607,  606
 46,  584,  585,  608,  607
 47,  585,  586,  609,  608
 48,  586,   38,   39,  609
 49,  137,  587,  610,  136
 50,  587,  588,  611,  610
 51,  588,  589,  612,  611
 52,  589,  590,  613,  612
 53,  590,  591,  614,  613
 54,  591,  592,  615,  614
 55,  592,  593,  616,  615
 56,  593,  594,  617,  616
 57,  594,  595,  618,  617
 58,  595,  596,  619,  618
 59,  596,  597,  620,  619
 60,  597,  598,  621,  620
 61,  598,  599,  622,  621
 62,  599,  600,  623,  622
 63,  600,  601,  624,  623
 64,  601,  602,  625,  624
 65,  602,  603,  626,  625
 66,  603,  604,  627,  626
 67,  604,  605,  628,  627
 68,  605,  606,  629,  628
 69,  606,  607,  630,  629
 70,  607,  608,  631,  630
 71,  608,  609,  632,  631
 72,  609,   39,   40,  632
 73,  136,  610,  633,  135
 74,  610,  611,  634,  633
 75,  611,  612,  635,  634
 76,  612,  613,  636,  635
 77,  613,  614,  637,  636
 78,  614,  615,  638,  637
 79,  615,  616,  639,  638
 80,  616,  617,  640,  639
 81,  617,  618,  641,  640
 82,  618,  619,  642,  641
 83,  619,  620,  643,  642
 84,  620,  621,  644,  643
 85,  621,  622,  645,  644
 86,  622,  623,  646,  645
 87,  623,  624,  647,  646
 88,  624,  625,  648,  647
 89,  625,  626,  649,  648
 90,  626,  627,  650,  649
 91,  627,  628,  651,  650
 92,  628,  629,  652,  651
 93,  629,  630,  653,  652
 94,  630,  631,  654,  653
 95,  631,  632,  655,  654
 96,  632,   40,   41,  655
 97,  135,  633,  656,  134
 98,  633,  634,  657,  656
 99,  634,  635,  658,  657
100,  635,  636,  659,  658
101,  636,  637,  660,  659
102,  637,  638,  661,  660
103,  638,  639,  662,  661
104,  639,  640,  663,  662
105,  640,  641,  664,  663
106,  641,  642,  665,  664
107,  642,  643,  666,  665
108,  643,  644,  667,  666
109,  644,  645,  668,  667
110,  645,  646,  669,  668
111,  646,  647,  670,  669
112,  647,  648,  671,  670
113,  648,  649,  672,  671
114,  649,  650,  673,  672
115,  650,  651,  674,  673
116,  651,  652,  675,  674
117,  652,  653,  676,  675
118,  653,  654,  677,  676
119,  654,  655,  678,  677
120,  655,   41,   42,  678
121,  134,  656,  679,  133
122,  656,  657,  680,  679
123,  657,  658,  681,  680
124,  658,  659,  682,  681
125,  659,  660,  683,  682
126,  660,  661,  684,  683
127,  661,  662,  685,  684
128,  662,  663,  686,  685
129,  663,  664,  687,  686
130,  664,  665,  688,  687
131,  665,  666,  689,  688
132,  666,  667,  690,  689
133,  667,  668,  691,  690
134,  668,  669,  692,  691
135,  669,  670,  693,  692
136,  670,  671,  694,  693
137,  671,  672,  695,  694
138,  672,  673,  696,  695
139,  673,  674,  697,  696
140,  674,  675,  698,  697
141,  675,  676,  699,  698
142,  676,  677,  700,  699
143,  677,  678,  701,  700
144,  678,   42,   43,  701
145,  133,  679,  702,  132
146,  679,  680,  703,  702
147,  680,  681,  704,  703
148,  681,  682,  705,  704
149,  682,  683,  706,  705
150,  683,  684,  707,  706
151,  684,  685,  708,  707
152,  685,  686,  709,  708
153,  686,  687,  710,  709
154,  687,  688,  711,  710
155,  688,  689,  712,  711
156,  689,  690,  713,  712
157,  690,  691,  714,  713
158,  691,  692,  715,  714
159,  692,  693,  716,  715
160,  693,  694,  717,  716
161,  694,  695,  718,  717
162,  695,  696,  719,  718
163,  696,  697,  720,  719
164,  697,  698,  721,  720
165,  698,  699,  722,  721
166,  699,  700,  723,  722
167,  700,  701,  724,  723
168,  701,   43,   44,  724
169,  132,  702,  725,  131
170,  702,  703,  726,  725
171,  703,  704,  727,  726
172,  704,  705,  728,  727
173,  705,  706,  729,  728
174,  706,  707,  730,  729
175,  707,  708,  731,  730
176,  708,  709,  732,  731
177,  709,  710,  733,  732
178,  710,  711,  734,  733
179,  711,  712,  735,  734
180,  712,  713,  736,  735
181,  713,  714,  737,  736
182,  714,  715,  738,  737
183,  715,  716,  739,  738
184,  716,  717,  740,  739
185,  717,  718,  741,  740
186,  718,  719,  742,  741
187,  719,  720,  743,  742
188,  720,  721,  744,  743
189,  721,  722,  745,  744
190,  722,  723,  746,  745
191,  723,  724,  747,  746
192,  724,   44,   45,  747
193,  131,  725,  748,  130
194,  725,  726,  749,  748
195,  726,  727,  750,  749
196,  727,  728,  751,  750
197,  728,  729,  752,  751
198,  729,  730,  753,  752
199,  730,  731,  754,  753
200,  731,  732,  755,  754
201,  732,  733,  756,  755
202,  733,  734,  757,  756
203,  734,  735,  758,  757
204,  735,  736,  759,  758
205,  736,  737,  760,  759
206,  737,  738,  761,  760
207,  738,  739,  762,  761
208,  739,  740,  763,  762
209,  740,  741,  764,  763
210,  741,  742,  765,  764
211,  742,  743,  766,  765
212,  743,  744,  767,  766
213,  744,  745,  768,  767
214,  745,  746,  769,  768
215,  746,  747,  770,  769
216,  747,   45,   46,  770
217,  130,  748,  771,  129
218,  748,  749,  772,  771
219,  749,  750,  773,  772
220,  750,  751,  774,  773
221,  751,  752,  775,  774
222,  752,  753,  776,  775
223,  753,  754,  777,  776
224,  754,  755,  778,  777
225,  755,  756,  779,  778
226,  756,  757,  780,  779
227,  757,  758,  781,  780
228,  758,  759,  782,  781
229,  759,  760,  783,  782
230,  760,  761,  784,  783
231,  761,  762,  785,  784
232,  762,  763,  786,  785
233,  763,  764,  787,  786
234,  764,  765,  788,  787
235,  765,  766,  789,  788
236,  766,  767,  790,  789
237,  767,  768,  791,  790
238,  768,  769,  792,  791
239,  769,  770,  793,  792
240,  770,   46,   47,  793
241,  129,  771,  794,  128
242,  771,  772,  795,  794
243,  772,  773,  796,  795
244,  773,  774,  797,  796
245,  774,  775,  798,  797
246,  775,  776,  799,  798
247,  776,  777,  800,  799
248,  777,  778,  801,  800
249,  778,  779,  802,  801
250,  779,  780,  803,  802
251,  780,  781,  804,  803
252,  781,  782,  805,  804
253,  782,  783,  806,  805
254,  783,  784,  807,  806
255,  784,  785,  808,  807
256,  785,  786,  809,  808
257,  786,  787,  810,  809
258,  787,  788,  811,  810
259,  788,  789,  812,  811
260,  789,  790,  813,  812
261,  790,  791,  814,  813
262,  791,  792,  815,  814
263,  792,  793,  816,  815
264,  793,   47,   48,  816
265,  128,  794,  817,  127
266,  794,  795,  818,  817
267,  795,  796,  819,  818
268,  796,  797,  820,  819
269,  797,  798,  821,  820
270,  798,  799,  822,  821
271,  799,  800,  823,  822
272,  800,  801,  824,  823
273,  801,  802,  825,  824
274,  802,  803,  826,  825
275,  803,  804,  827,  826
276,  804,  805,  828,  827
277,  805,  806,  829,  828
278,  806,  807,  830,  829
279,  807,  808,  831,  830
280,  808,  809,  832,  831
281,  809,  810,  833,  832
282,  810,  811,  834,  833
283,  811,  812,  835,  834
284,  812,  813,  836,  835
285,  813,  814,  837,  836
286,  814,  815,  838,  837
287,  815,  816,  839,  838
288,  816,   48,   49,  839
289,  127,  817,  840,  126
290,  817,  818,  841,  840
291,  818,  819,  842,  841
292,  819,  820,  843,  842
293,  820,  821,  844,  843
294,  821,  822,  845,  844
295,  822,  823,  846,  845
296,  823,  824,  847,  846
297,  824,  825,  848,  847
298,  825,  826,  849,  848
299,  826,  827,  850,  849
300,  827,  828,  851,  850
301,  828,  829,  852,  851
302,  829,  830,  853,  852
303,  830,  831,  854,  853
304,  831,  832,  855,  854
305,  832,  833,  856,  855
306,  833,  834,  857,  856
307,  834,  835,  858,  857
308,  835,  836,  859,  858
309,  836,  837,  860,  859
310,  837,  838,  861,  860
311,  838,  839,  862,  861
312,  839,   49,   50,  862
313,  126,  840,  863,  125
314,  840,  841,  864,  863
315,  841,  842,  865,  864
316,  842,  843,  866,  865
317,  843,  844,  867,  866
318,  844,  845,  868,  867
319,  845,  846,  869,  868
320,  846,  847,  870,  869
321,  847,  848,  871,  870
322,  848,  849,  872,  871
323,  849,  850,  873,  872
324,  850,  851,  874,  873
325,  851,  852,  875,  874
326,  852,  853,  876,  875
327,  853,  854,  877,  876
328,  854,  855,  878,  877
329,  855,  856,  879,  878
330,  856,  857,  880,  879
331,  857,  858,  881,  880
332,  858,  859,  882,  881
333,  859,  860,  883,  882
334,  860,  861,  884,  883
335,  861,  862,  885,  884
336,  862,   50,   51,  885
337,  125,  863,  886,  124
338,  863,  864,  887,  886
339,  864,  865,  888,  887
340,  865,  866,  889,  888
341,  866,  867,  890,  889
342,  867,  868,  891,  890
343,  868,  869,  892,  891
344,  869,  870,  893,  892
345,  870,  871,  894,  893
346,  871,  872,  895,  894
347,  872,  873,  896,  895
348,  873,  874,  897,  896
349,  874,  875,  898,  897
350,  875,  876,  899,  898
351,  876,  877,  900,  899
352,  877,  878,  901,  900
353,  878,  879,  902,  901
354,  879,  880,  903,  902
355,  880,  881,  904,  903
356,  881,  882,  905,  904
357,  882,  883,  906,  905
358,  883,  884,  907,  906
359,  884,  885,  908,  907
360,  885,   51,   52,  908
361,  124,  886,  909,  123
362,  886,  887,  910,  909
363,  887,  888,  911,  910
364,  888,  889,  912,  911
365,  889,  890,  913,  912
366,  890,  891,  914,  913
367,  891,  892,  915,  914
368,  892,  893,  916,  915
369,  893,  894,  917,  916
370,  894,  895,  918,  917
371,  895,  896,  919,  918
372,  896,  897,  920,  919
373,  897,  898,  921,  920
374,  898,  899,  922,  921
375,  899,  900,  923,  922
376,  900,  901,  924,  923
377,  901,  902,  925,  924
378,  902,  903,  926,  925
379,  903,  904,  927,  926
380,  904,  905,  928,  927
381,  905,  906,  929,  928
382,  906,  907,  930,  929
383,  907,  908,  931,  930
384,  908,   52,   53,  931
385,  123,  909,  932,  122
386,  909,  910,  933,  932
387,  910,  911,  934,  933
388,  911,  912,  935,  934
389,  912,  913,  936,  935
390,  913,  914,  937,  936
391,  914,  915,  938,  937
392,  915,  916,  939,  938
393,  916,  917,  940,  939
394,  917,  918,  941,  940
395,  918,  919,  942,  941
396,  919,  920,  943,  942
397,  920,  921,  944,  943
398,  921,  922,  945,  944
399,  922,  923,  946,  945
400,  923,  924,  947,  946
401,  924,  925,  948,  947
402,  925,  926,  949,  948
403,  926,  927,  950,  949
404,  927,  928,  951,  950
405,  928,  929,  952,  951
406,  929,  930,  953,  952
407,  930,  931,  954,  953
408,  931,   53,   54,  954
409,  122,  932,  955,  121
410,  932,  933,  956,  955
411,  933,  934,  957,  956
412,  934,  935,  958,  957
413,  935,  936,  959,  958
414,  936,  937,  960,  959
415,  937,  938,  961,  960
416,  938,  939,  962,  961
417,  939,  940,  963,  962
418,  940,  941,  964,  963
419,  941,  942,  965,  964
420,  942,  943,  966,  965
421,  943,  944,  967,  966
422,  944,  945,  968,  967
423,  945,  946,  969,  968
424,  946,  947,  970,  969
425,  947,  948,  971,  970
426,  948,  949,  972,  971
427,  949,  950,  973,  972
428,  950,  951,  974,  973
429,  951,  952,  975,  974
430,  952,  953,  976,  975
431,  953,  954,  977,  976
432,  954,   54,   55,  977
433,  121,  955,  978,  120
434,  955,  956,  979,  978
435,  956,  957,  980,  979
436,  957,  958,  981,  980
437,  958,  959,  982,  981
438,  959,  960,  983,  982
439,  960,  961,  984,  983
440,  961,  962,  985,  984
441,  962,  963,  986,  985
442,  963,  964,  987,  986
443,  964,  965,  988,  987
444,  965,  966,  989,  988
445,  966,  967,  990,  989
446,  967,  968,  991,  990
447,  968,  969,  992,  991
448,  969,  970,  993,  992
449,  970,  971,  994,  993
450,  971,  972,  995,  994
451,  972,  973,  996,  995
452,  973,  974,  997,  996
453,  974,  975,  998,  997
454,  975,  976,  999,  998
455,  976,  977, 1000,  999
456,  977,   55,   56, 1000
457,  120,  978, 1001,  119
458,  978,  979, 1002, 1001
459,  979,  980, 1003, 1002
460,  980,  981, 1004, 1003
461,  981,  982, 1005, 1004
462,  982,  983, 1006, 1005
463,  983,  984, 1007, 1006
464,  984,  985, 1008, 1007
465,  985,  986, 1009, 1008
466,  986,  987, 1010, 1009
467,  987,  988, 1011, 1010
468,  988,  989, 1012, 1011
469,  989,  990, 1013, 1012
470,  990,  991, 1014, 1013
471,  991,  992, 1015, 1014
472,  992,  993, 1016, 1015
473,  993,  994, 1017, 1016
474,  994,  995, 1018, 1017
475,  995,  996, 1019, 1018
476,  996,  997, 1020, 1019
477,  997,  998, 1021, 1020
478,  998,  999, 1022, 1021
479,  999, 1000, 1023, 1022
480, 1000,   56,   57, 1023
481,  119, 1001, 1024,  118
482, 1001, 1002, 1025, 1024
483, 1002, 1003, 1026, 1025
484, 1003, 1004, 1027, 1026
485, 1004, 1005, 1028, 1027
486, 1005, 1006, 1029, 1028
487, 1006, 1007, 1030, 1029
488, 1007, 1008, 1031, 1030
489, 1008, 1009, 1032, 1031
490, 1009, 1010, 1033, 1032
491, 1010, 1011, 1034, 1033
492, 1011, 1012, 1035, 1034
493, 1012, 1013, 1036, 1035
494, 1013, 1014, 1037, 1036
495, 1014, 1015, 1038, 1037
496, 1015, 1016, 1039, 1038
497, 1016, 1017, 1040, 1039
498, 1017, 1018, 1041, 1040
499, 1018, 1019, 1042, 1041
500, 1019, 1020, 1043, 1042
501, 1020, 1021, 1044, 1043
502, 1021, 1022, 1045, 1044
503, 1022, 1023, 1046, 1045
504, 1023,   57,   58, 1046
505,  118, 1024, 1047,  117
506, 1024, 1025, 1048, 1047
507, 1025, 1026, 1049, 1048
508, 1026, 1027, 1050, 1049
509, 1027, 1028, 1051, 1050
510, 1028, 1029, 1052, 1051
511, 1029, 1030, 1053, 1052
512, 1030, 1031, 1054, 1053
513, 1031, 1032, 1055, 1054
514, 1032, 1033, 1056, 1055
515, 1033, 1034, 1057, 1056
516, 1034, 1035, 1058, 1057
517, 1035, 1036, 1059, 1058
518, 1036, 1037, 1060, 1059
519, 1037, 1038, 1061, 1060
520, 1038, 1039, 1062, 1061
521, 1039, 1040, 1063, 1062
522, 1040, 1041, 1064, 1063
523, 1041, 1042, 1065, 1064
524, 1042, 1043, 1066, 1065
525, 1043, 1044, 1067, 1066
526, 1044, 1045, 1068, 1067
527, 1045, 1046, 1069, 1068
528, 1046,   58,   59, 1069
529,  117, 1047, 1070,  116
530, 1047, 1048, 1071, 1070
531, 1048, 1049, 1072, 1071
532, 1049, 1050, 1073, 1072
533, 1050, 1051, 1074, 1073
534, 1051, 1052, 1075, 1074
535, 1052, 1053, 1076, 1075
536, 1053, 1054, 1077, 1076
537, 1054, 1055, 1078, 1077
538, 1055, 1056, 1079, 1078
539, 1056, 1057, 1080, 1079
540, 1057, 1058, 1081, 1080
541, 1058, 1059, 1082, 1081
542, 1059, 1060, 1083, 1082
543, 1060, 1061, 1084, 1083
544, 1061, 1062, 1085, 1084
545, 1062, 1063, 1086, 1085
546, 1063, 1064, 1087, 1086
547, 1064, 1065, 1088, 1087
548, 1065, 1066, 1089, 1088
549, 1066, 1067, 1090, 1089
550, 1067, 1068, 1091, 1090
551, 1068, 1069, 1092, 1091
552, 1069,   59,   60, 1092
553,  116, 1070, 1093,  115
554, 1070, 1071, 1094, 1093
555, 1071, 1072, 1095, 1094
556, 1072, 1073, 1096, 1095
557, 1073, 1074, 1097, 1096
558, 1074, 1075, 1098, 1097
559, 1075, 1076, 1099, 1098
560, 1076, 1077, 1100, 1099
561, 1077, 1078, 1101, 1100
562, 1078, 1079, 1102, 1101
563, 1079, 1080, 1103, 1102
564, 1080, 1081, 1104, 1103
565, 1081, 1082, 1105, 1104
566, 1082, 1083, 1106, 1105
567, 1083, 1084, 1107, 1106
568, 1084, 1085, 1108, 1107
569, 1085, 1086, 1109, 1108
570, 1086, 1087, 1110, 1109
571, 1087, 1088, 1111, 1110
572, 1088, 1089, 1112, 1111
573, 1089, 1090, 1113, 1112
574, 1090, 1091, 1114, 1113
575, 1091, 1092, 1115, 1114
576, 1092,   60,   61, 1115
577,  115, 1093, 1116,  114
578, 1093, 1094, 1117, 1116
579, 1094, 1095, 1118, 1117
580, 1095, 1096, 1119, 1118
581, 1096, 1097, 1120, 1119
582, 1097, 1098, 1121, 1120
583, 1098, 1099, 1122, 1121
584, 1099, 1100, 1123, 1122
585, 1100, 1101, 1124, 1123
586, 1101, 1102, 1125, 1124
587, 1102, 1103, 1126, 1125
588, 1103, 1104, 1127, 1126
589, 1104, 1105, 1128, 1127
590, 1105, 1106, 1129, 1128
591, 1106, 1107, 1130, 1129
592, 1107, 1108, 1131, 1130
593, 1108, 1109, 1132, 1131
594, 1109, 1110, 1133, 1132
595, 1110, 1111, 1134, 1133
596, 1111, 1112, 1135, 1134
597, 1112, 1113, 1136, 1135
598, 1113, 1114, 1137, 1136
599, 1114, 1115, 1138, 1137
600, 1115,   61,   62, 1138
601,  114, 1116, 1139,  113
602, 1116, 1117, 1140, 1139
603, 1117, 1118, 1141, 1140
604, 1118, 1119, 1142, 1141
605, 1119, 1120, 1143, 1142
606, 1120, 1121, 1144, 1143
607, 1121, 1122, 1145, 1144
608, 1122, 1123, 1146, 1145
609, 1123, 1124, 1147, 1146
610, 1124, 1125, 1148, 1147
611, 1125, 1126, 1149, 1148
612, 1126, 1127, 1150, 1149
613, 1127, 1128, 1151, 1150
614, 1128, 1129, 1152, 1151
615, 1129, 1130, 1153, 1152
616, 1130, 1131, 1154, 1153
617, 1131, 1132, 1155, 1154
618, 1132, 1133, 1156, 1155
619, 1133, 1134, 1157, 1156
620, 1134, 1135, 1158, 1157
621, 1135, 1136, 1159, 1158
622, 1136, 1137, 1160, 1159
623, 1137, 1138, 1161, 1160
624, 1138,   62,   63, 1161
625,  113, 1139, 1162,  112
626, 1139, 1140, 1163, 1162
627, 1140, 1141, 1164, 1163
628, 1141, 1142, 1165, 1164
629, 1142, 1143, 1166, 1165
630, 1143, 1144, 1167, 1166
631, 1144, 1145, 1168, 1167
632, 1145, 1146, 1169, 1168
633, 1146, 1147, 1170, 1169
634, 1147, 1148, 1171, 1170
635, 1148, 1149, 1172, 1171
636, 1149, 1150, 1173, 1172
637, 1150, 1151, 1174, 1173
638, 1151, 1152, 1175, 1174
639, 1152, 1153, 1176, 1175
640, 1153, 1154, 1177, 1176
641, 1154, 1155, 1178, 1177
642, 1155, 1156, 1179, 1178
643, 1156, 1157, 1180, 1179
644, 1157, 1158, 1181, 1180
645, 1158, 1159, 1182, 1181
646, 1159, 1160, 1183, 1182
647, 1160, 1161, 1184, 1183
648, 1161,   63,   64, 1184
649,  112, 1162, 1185,  111
650, 1162, 1163, 1186, 1185
651, 1163, 1164, 1187, 1186
652, 1164, 1165, 1188, 1187
653, 1165, 1166, 1189, 1188
654, 1166, 1167, 1190, 1189
655, 1167, 1168, 1191, 1190
656, 1168, 1169, 1192, 1191
657, 1169, 1170, 1193, 1192
658, 1170, 1171, 1194, 1193
659, 1171, 1172, 1195, 1194
660, 1172, 1173, 1196, 1195
661, 1173, 1174, 1197, 1196
662, 1174, 1175, 1198, 1197
663, 1175, 1176, 1199, 1198
664, 1176, 1177, 1200, 1199
665, 1177, 1178, 1201, 1200
666, 1178, 1179, 1202, 1201
667, 1179, 1180, 1203, 1202
668, 1180, 1181, 1204, 1203
669, 1181, 1182, 1205, 1204
670, 1182, 1183, 1206, 1205
671, 1183, 1184, 1207, 1206
672, 1184,   64,   65, 1207
673,  111, 1185, 1208,  110
674, 1185, 1186, 1209, 1208
675, 1186, 1187, 1210, 1209
676, 1187, 1188, 1211, 1210
677, 1188, 1189, 1212, 1211
678, 1189, 1190, 1213, 1212
679, 1190, 1191, 1214, 1213
680, 1191, 1192, 1215, 1214
681, 1192, 1193, 1216, 1215
682, 1193, 1194, 1217, 1216
683, 1194, 1195, 1218, 1217
684, 1195, 1196, 1219, 1218
685, 1196, 1197, 1220, 1219
686, 1197, 1198, 1221, 1220
687, 1198, 1199, 1222, 1221
688, 1199, 1200, 1223, 1222
689, 1200, 1201, 1224, 1223
690, 1201, 1202, 1225, 1224
691, 1202, 1203, 1226, 1225
692, 1203, 1204, 1227, 1226
693, 1204, 1205, 1228, 1227
694, 1205, 1206, 1229, 1228
695, 1206, 1207, 1230, 1229
696, 1207,   65,   66, 1230
697,  110, 1208, 1231,  109
698, 1208, 1209, 1232, 1231
699, 1209, 1210, 1233, 1232
700, 1210, 1211, 1234, 1233
701, 1211, 1212, 1235, 1234
702, 1212, 1213, 1236, 1235
703, 1213, 1214, 1237, 1236
704, 1214, 1215, 1238, 1237
705, 1215, 1216, 1239, 1238
706, 1216, 1217, 1240, 1239
707, 1217, 1218, 1241, 1240
708, 1218, 1219, 1242, 1241
709, 1219, 1220, 1243, 1242
710, 1220, 1221, 1244, 1243
711, 1221, 1222, 1245, 1244
712, 1222, 1223, 1246, 1245
713, 1223, 1224, 1247, 1246
714, 1224, 1225, 1248, 1247
715, 1225, 1226, 1249, 1248
716, 1226, 1227, 1250, 1249
717, 1227, 1228, 1251, 1250
718, 1228, 1229, 1252, 1251
719, 1229, 1230, 1253, 1252
720, 1230,   66,   67, 1253
721,  109, 1231, 1254,  108
722, 1231, 1232, 1255, 1254
723, 1232, 1233, 1256, 1255
724, 1233, 1234, 1257, 1256
725, 1234, 1235, 1258, 1257
726, 1235, 1236, 1259, 1258
727, 1236, 1237, 1260, 1259
728, 1237, 1238, 1261, 1260
729, 1238, 1239, 1262, 1261
730, 1239, 1240, 1263, 1262
731, 1240, 1241, 1264, 1263
732, 1241, 1242, 1265, 1264
733, 1242, 1243, 1266, 1265
734, 1243, 1244, 1267, 1266
735, 1244, 1245, 1268, 1267
736, 1245, 1246, 1269, 1268
737, 1246, 1247, 1270, 1269
738, 1247, 1248, 1271, 1270
739, 1248, 1249, 1272, 1271
740, 1249, 1250, 1273, 1272
741, 1250, 1251, 1274, 1273
742, 1251, 1252, 1275, 1274
743, 1252, 1253, 1276, 1275
744, 1253,   67,   68, 1276
745,  108, 1254, 1277,  107
746, 1254, 1255, 1278, 1277
747, 1255, 1256, 1279, 1278
748, 1256, 1257, 1280, 1279
749, 1257, 1258, 1281, 1280
750, 1258, 1259, 1282, 1281
751, 1259, 1260, 1283, 1282
752, 1260, 1261, 1284, 1283
753, 1261, 1262, 1285, 1284
754, 1262, 1263, 1286, 1285
755, 1263, 1264, 1287, 1286
756, 1264, 1265, 1288, 1287
757, 1265, 1266, 1289, 1288
758, 1266, 1267, 1290, 1289
759, 1267, 1268, 1291, 1290
760, 1268, 1269, 1292, 1291
761, 1269, 1270, 1293, 1292
762, 1270, 1271, 1294, 1293
763, 1271, 1272, 1295, 1294
764, 1272, 1273, 1296, 1295
765, 1273, 1274, 1297, 1296
766, 1274, 1275, 1298, 1297
767, 1275, 1276, 1299, 1298
768, 1276,   68,   69, 1299
769,  107, 1277, 1300,  106
770, 1277, 1278, 1301, 1300
771, 1278, 1279, 1302, 1301
772, 1279, 1280, 1303, 1302
773, 1280, 1281, 1304, 1303
774, 1281, 1282, 1305, 1304
775, 1282, 1283, 1306, 1305
776, 1283, 1284, 1307, 1306
777, 1284, 1285, 1308, 1307
778, 1285, 1286, 1309, 1308
779, 1286, 1287, 1310, 1309
780, 1287, 1288, 1311, 1310
781, 1288, 1289, 1312, 1311
782, 1289, 1290, 1313, 1312
783, 1290, 1291, 1314, 1313
784, 1291, 1292, 1315, 1314
785, 1292, 1293, 1316, 1315
786, 1293, 1294, 1317, 1316
787, 1294, 1295, 1318, 1317
788, 1295, 1296, 1319, 1318
789, 1296, 1297, 1320, 1319
790, 1297, 1298, 1321, 1320
791, 1298, 1299, 1322, 1321
792, 1299,   69,   70, 1322
793,  106, 1300, 1323,  105
794, 1300, 1301, 1324, 1323
795, 1301, 1302, 1325, 1324
796, 1302, 1303, 1326, 1325
797, 1303, 1304, 1327, 1326
798, 1304, 1305, 1328, 1327
799, 1305, 1306, 1329, 1328
800, 1306, 1307, 1330, 1329
801, 1307, 1308, 1331, 1330
802, 1308, 1309, 1332, 1331
803, 1309, 1310, 1333, 1332
804, 1310, 1311, 1334, 1333
805, 1311, 1312, 1335, 1334
806, 1312, 1313, 1336, 1335
807, 1313, 1314, 1337, 1336
808, 1314, 1315, 1338, 1337
809, 1315, 1316, 1339, 1338
810, 1316, 1317, 1340, 1339
811, 1317, 1318, 1341, 1340
812, 1318, 1319, 1342, 1341
813, 1319, 1320, 1343, 1342
814, 1320, 1321, 1344, 1343
815, 1321, 1322, 1345, 1344
816, 1322,   70,   71, 1345
817,  105, 1323, 1346,  104
818, 1323, 1324, 1347, 1346
819, 1324, 1325, 1348, 1347
820, 1325, 1326, 1349, 1348
821, 1326, 1327, 1350, 1349
822, 1327, 1328, 1351, 1350
823, 1328, 1329, 1352, 1351
824, 1329, 1330, 1353, 1352
825, 1330, 1331, 1354, 1353
826, 1331, 1332, 1355, 1354
827, 1332, 1333, 1356, 1355
828, 1333, 1334, 1357, 1356
829, 1334, 1335, 1358, 1357
830, 1335, 1336, 1359, 1358
831, 1336, 1337, 1360, 1359
832, 1337, 1338, 1361, 1360
833, 1338, 1339, 1362, 1361
834, 1339, 1340, 1363, 1362
835, 1340, 1341, 1364, 1363
836, 1341, 1342, 1365, 1364
837, 1342, 1343, 1366, 1365
838, 1343, 1344, 1367, 1366
839, 1344, 1345, 1368, 1367
840, 1345,   71,   72, 1368
841,  104, 1346, 1369,  103
842, 1346, 1347, 1370, 1369
843, 1347, 1348, 1371, 1370
844, 1348, 1349, 1372, 1371
845, 1349, 1350, 1373, 1372
846, 1350, 1351, 1374, 1373
847, 1351, 1352, 1375, 1374
848, 1352, 1353, 1376, 1375
849, 1353, 1354, 1377, 1376
850, 1354, 1355, 1378, 1377
851, 1355, 1356, 1379, 1378
852, 1356, 1357, 1380, 1379
853, 1357, 1358, 1381, 1380
854, 1358, 1359, 1382, 1381
855, 1359, 1360, 1383, 1382
856, 1360, 1361, 1384, 1383
857, 1361, 1362, 1385, 1384
858, 1362, 1363, 1386, 1385
859, 1363, 1364, 1387, 1386
860, 1364, 1365, 1388, 1387
861, 1365, 1366, 1389, 1388
862, 1366, 1367, 1390, 1389
863, 1367, 1368, 1391, 1390
864, 1368,   72,   73, 1391
865,  103, 1369, 1392,  102
866, 1369, 1370, 1393, 1392
867, 1370, 1371, 1394, 1393
868, 1371, 1372, 1395, 1394
869, 1372, 1373, 1396, 1395
870, 1373, 1374, 1397, 1396
871, 1374, 1375, 1398, 1397
872, 1375, 1376, 1399, 1398
873, 1376, 1377, 1400, 1399
874, 1377, 1378, 1401, 1400
875, 1378, 1379, 1402, 1401
876, 1379, 1380, 1403, 1402
877, 1380, 1381, 1404, 1403
878, 1381, 1382, 1405, 1404
879, 1382, 1383, 1406, 1405
880, 1383, 1384, 1407, 1406
881, 1384, 1385, 1408, 1407
882, 1385, 1386, 1409, 1408
883, 1386, 1387, 1410, 1409
884, 1387, 1388, 1411, 1410
885, 1388, 1389, 1412, 1411
886, 1389, 1390, 1413, 1412
887, 1390, 1391, 1414, 1413
888, 1391,   73,   74, 1414
889,  102, 1392, 1415,  101
890, 1392, 1393, 1416, 1415
891, 1393, 1394, 1417, 1416
892, 1394, 1395, 1418, 1417
893, 1395, 1396, 1419, 1418
894, 1396, 1397, 1420, 1419
895, 1397, 1398, 1421, 1420
896, 1398, 1399, 1422, 1421
897, 1399, 1400, 1423, 1422
898, 1400, 1401, 1424, 1423
899, 1401, 1402, 1425, 1424
900, 1402, 1403, 1426, 1425
901, 1403, 1404, 1427, 1426
902, 1404, 1405, 1428, 1427
903, 1405, 1406, 1429, 1428
904, 1406, 1407, 1430, 1429
905, 1407, 1408, 1431, 1430
906, 1408, 1409, 1432, 1431
907, 1409, 1410, 1433, 1432
908, 1410, 1411, 1434, 1433
909, 1411, 1412, 1435, 1434
910, 1412, 1413, 1436, 1435
911, 1413, 1414, 1437, 1436
912, 1414,   74,   75, 1437
913,  101, 1415, 1438,  100
914, 1415, 1416, 1439, 1438
915, 1416, 1417, 1440, 1439
916, 1417, 1418, 1441, 1440
917, 1418, 1419, 1442, 1441
918, 1419, 1420, 1443, 1442
919, 1420, 1421, 1444, 1443
920, 1421, 1422, 1445, 1444
921, 1422, 1423, 1446, 1445
922, 1423, 1424, 1447, 1446
923, 1424, 1425, 1448, 1447
924, 1425, 1426, 1449, 1448
925, 1426, 1427, 1450, 1449
926, 1427, 1428, 1451, 1450
927, 1428, 1429, 1452, 1451
928, 1429, 1430, 1453, 1452
929, 1430, 1431, 1454, 1453
930, 1431, 1432, 1455, 1454
931, 1432, 1433, 1456, 1455
932, 1433, 1434, 1457, 1456
933, 1434, 1435, 1458, 1457
934, 1435, 1436, 1459, 1458
935, 1436, 1437, 1460, 1459
936, 1437,   75,   76, 1460
937,  100, 1438,   99,    4
938, 1438, 1439,   98,   99
939, 1439, 1440,   97,   98
940, 1440, 1441,   96,   97
941, 1441, 1442,   95,   96
942, 1442, 1443,   94,   95
943, 1443, 1444,   93,   94
944, 1444, 1445,   92,   93
945, 1445, 1446,   91,   92
946, 1446, 1447,   90,   91
947, 1447, 1448,   89,   90
948, 1448, 1449,   88,   89
949, 1449, 1450,   87,   88
950, 1450, 1451,   86,   87
951, 1451, 1452,   85,   86
952, 1452, 1453,   84,   85
953, 1453, 1454,   83,   84
954, 1454, 1455,   82,   83
955, 1455, 1456,   81,   82
956, 1456, 1457,   80,   81
957, 1457, 1458,   79,   80
958, 1458, 1459,   78,   79
959, 1459, 1460,   77,   78
960, 1460,   76,    3,   77
 961,    4,   99, 1461,  239
 962,   99,   98, 1462, 1461
 963,   98,   97, 1463, 1462
 964,   97,   96, 1464, 1463
 965,   96,   95, 1465, 1464
 966,   95,   94, 1466, 1465
 967,   94,   93, 1467, 1466
 968,   93,   92, 1468, 1467
 969,   92,   91, 1469, 1468
 970,   91,   90, 1470, 1469
 971,   90,   89, 1471, 1470
 972,   89,   88, 1472, 1471
 973,   88,   87, 1473, 1472
 974,   87,   86, 1474, 1473
 975,   86,   85, 1475, 1474
 976,   85,   84, 1476, 1475
 977,   84,   83, 1477, 1476
 978,   83,   82, 1478, 1477
 979,   82,   81, 1479, 1478
 980,   81,   80, 1480, 1479
 981,   80,   79, 1481, 1480
 982,   79,   78, 1482, 1481
 983,   78,   77, 1483, 1482
 984,   77,    3,  139, 1483
 985,  239, 1461, 1484,  238
 986, 1461, 1462, 1485, 1484
 987, 1462, 1463, 1486, 1485
 988, 1463, 1464, 1487, 1486
 989, 1464, 1465, 1488, 1487
 990, 1465, 1466, 1489, 1488
 991, 1466, 1467, 1490, 1489
 992, 1467, 1468, 1491, 1490
 993, 1468, 1469, 1492, 1491
 994, 1469, 1470, 1493, 1492
 995, 1470, 1471, 1494, 1493
 996, 1471, 1472, 1495, 1494
 997, 1472, 1473, 1496, 1495
 998, 1473, 1474, 1497, 1496
 999, 1474, 1475, 1498, 1497
1000, 1475, 1476, 1499, 1498
1001, 1476, 1477, 1500, 1499
1002, 1477, 1478, 1501, 1500
1003, 1478, 1479, 1502, 1501
1004, 1479, 1480, 1503, 1502
1005, 1480, 1481, 1504, 1503
1006, 1481, 1482, 1505, 1504
1007, 1482, 1483, 1506, 1505
1008, 1483,  139,  140, 1506
1009,  238, 1484, 1507,  237
1010, 1484, 1485, 1508, 1507
1011, 1485, 1486, 1509, 1508
1012, 1486, 1487, 1510, 1509
1013, 1487, 1488, 1511, 1510
1014, 1488, 1489, 1512, 1511
1015, 1489, 1490, 1513, 1512
1016, 1490, 1491, 1514, 1513
1017, 1491, 1492, 1515, 1514
1018, 1492, 1493, 1516, 1515
1019, 1493, 1494, 1517, 1516
1020, 1494, 1495, 1518, 1517
1021, 1495, 1496, 1519, 1518
1022, 1496, 1497, 1520, 1519
1023, 1497, 1498, 1521, 1520
1024, 1498, 1499, 1522, 1521
1025, 1499, 1500, 1523, 1522
1026, 1500, 1501, 1524, 1523
1027, 1501, 1502, 1525, 1524
1028, 1502, 1503, 1526, 1525
1029, 1503, 1504, 1527, 1526
1030, 1504, 1505, 1528, 1527
1031, 1505, 1506, 1529, 1528
1032, 1506,  140,  141, 1529
1033,  237, 1507, 1530,  236
1034, 1507, 1508, 1531, 1530
1035, 1508, 1509, 1532, 1531
1036, 1509, 1510, 1533, 1532
1037, 1510, 1511, 1534, 1533
1038, 1511, 1512, 1535, 1534
1039, 1512, 1513, 1536, 1535
1040, 1513, 1514, 1537, 1536
1041, 1514, 1515, 1538, 1537
1042, 1515, 1516, 1539, 1538
1043, 1516, 1517, 1540, 1539
1044, 1517, 1518, 1541, 1540
1045, 1518, 1519, 1542, 1541
1046, 1519, 1520, 1543, 1542
1047, 1520, 1521, 1544, 1543
1048, 1521, 1522, 1545, 1544
1049, 1522, 1523, 1546, 1545
1050, 1523, 1524, 1547, 1546
1051, 1524, 1525, 1548, 1547
1052, 1525, 1526, 1549, 1548
1053, 1526, 1527, 1550, 1549
1054, 1527, 1528, 1551, 1550
1055, 1528, 1529, 1552, 1551
1056, 1529,  141,  142, 1552
1057,  236, 1530, 1553,  235
1058, 1530, 1531, 1554, 1553
1059, 1531, 1532, 1555, 1554
1060, 1532, 1533, 1556, 1555
1061, 1533, 1534, 1557, 1556
1062, 1534, 1535, 1558, 1557
1063, 1535, 1536, 1559, 1558
1064, 1536, 1537, 1560, 1559
1065, 1537, 1538, 1561, 1560
1066, 1538, 1539, 1562, 1561
1067, 1539, 1540, 1563, 1562
1068, 1540, 1541, 1564, 1563
1069, 1541, 1542, 1565, 1564
1070, 1542, 1543, 1566, 1565
1071, 1543, 1544, 1567, 1566
1072, 1544, 1545, 1568, 1567
1073, 1545, 1546, 1569, 1568
1074, 1546, 1547, 1570, 1569
1075, 1547, 1548, 1571, 1570
1076, 1548, 1549, 1572, 1571
1077, 1549, 1550, 1573, 1572
1078, 1550, 1551, 1574, 1573
1079, 1551, 1552, 1575, 1574
1080, 1552,  142,  143, 1575
1081,  235, 1553, 1576,  234
1082, 1553, 1554, 1577, 1576
1083, 1554, 1555, 1578, 1577
1084, 1555, 1556, 1579, 1578
1085, 1556, 1557, 1580, 1579
1086, 1557, 1558, 1581, 1580
1087, 1558, 1559, 1582, 1581
1088, 1559, 1560, 1583, 1582
1089, 1560, 1561, 1584, 1583
1090, 1561, 1562, 1585, 1584
1091, 1562, 1563, 1586, 1585
1092, 1563, 1564, 1587, 1586
1093, 1564, 1565, 1588, 1587
1094, 1565, 1566, 1589, 1588
1095, 1566, 1567, 1590, 1589
1096, 1567, 1568, 1591, 1590
1097, 1568, 1569, 1592, 1591
1098, 1569, 1570, 1593, 1592
1099, 1570, 1571, 1594, 1593
1100, 1571, 1572, 1595, 1594
1101, 1572, 1573, 1596, 1595
1102, 1573, 1574, 1597, 1596
1103, 1574, 1575, 1598, 1597
1104, 1575,  143,  144, 1598
1105,  234, 1576, 1599,  233
1106, 1576, 1577, 1600, 1599
1107, 1577, 1578, 1601, 1600
1108, 1578, 1579, 1602, 1601
1109, 1579, 1580, 1603, 1602
1110, 1580, 1581, 1604, 1603
1111, 1581, 1582, 1605, 1604
1112, 1582, 1583, 1606, 1605
1113, 1583, 1584, 1607, 1606
1114, 1584, 1585, 1608, 1607
1115, 1585, 1586, 1609, 1608
1116, 1586, 1587, 1610, 1609
1117, 1587, 1588, 1611, 1610
1118, 1588, 1589, 1612, 1611
1119, 1589, 1590, 1613, 1612
1120, 1590, 1591, 1614, 1613
1121, 1591, 1592, 1615, 1614
1122, 1592, 1593, 1616, 1615
1123, 1593, 1594, 1617, 1616
1124, 1594, 1595, 1618, 1617
1125, 1595, 1596, 1619, 1618
1126, 1596, 1597, 1620, 1619
1127, 1597, 1598, 1621, 1620
1128, 1598,  144,  145, 1621
1129,  233, 1599, 1622,  232
1130, 1599, 1600, 1623, 1622
1131, 1600, 1601, 1624, 1623
1132, 1601, 1602, 1625, 1624
1133, 1602, 1603, 1626, 1625
1134, 1603, 1604, 1627, 1626
1135, 1604, 1605, 1628, 1627
1136, 1605, 1606, 1629, 1628
1137, 1606, 1607, 1630, 1629
1138, 1607, 1608, 1631, 1630
1139, 1608, 1609, 1632, 1631
1140, 1609, 1610, 1633, 1632
1141, 1610, 1611, 1634, 1633
1142, 1611, 1612, 1635, 1634
1143, 1612, 1613, 1636, 1635
1144, 1613, 1614, 1637, 1636
1145, 1614, 1615, 1638, 1637
1146, 1615, 1616, 1639, 1638
1147, 1616, 1617, 1640, 1639
1148, 1617, 1618, 1641, 1640
1149, 1618, 1619, 1642, 1641
1150, 1619, 1620, 1643, 1642
1151, 1620, 1621, 1644, 1643
1152, 1621,  145,  146, 1644
1153,  232, 1622, 1645,  231
1154, 1622, 1623, 1646, 1645
1155, 1623, 1624, 1647, 1646
1156, 1624, 1625, 1648, 1647
1157, 1625, 1626, 1649, 1648
1158, 1626, 1627, 1650, 1649
1159, 1627, 1628, 1651, 1650
1160, 1628, 1629, 1652, 1651
1161, 1629, 1630, 1653, 1652
1162, 1630, 1631, 1654, 1653
1163, 1631, 1632, 1655, 1654
1164, 1632, 1633, 1656, 1655
1165, 1633, 1634, 1657, 1656
1166, 1634, 1635, 1658, 1657
1167, 1635, 1636, 1659, 1658
1168, 1636, 1637, 1660, 1659
1169, 1637, 1638, 1661, 1660
1170, 1638, 1639, 1662, 1661
1171, 1639, 1640, 1663, 1662
1172, 1640, 1641, 1664, 1663
1173, 1641, 1642, 1665, 1664
1174, 1642, 1643, 1666, 1665
1175, 1643, 1644, 1667, 1666
1176, 1644,  146,  147, 1667
1177,  231, 1645, 1668,  230
1178, 1645, 1646, 1669, 1668
1179, 1646, 1647, 1670, 1669
1180, 1647, 1648, 1671, 1670
1181, 1648, 1649, 1672, 1671
1182, 1649, 1650, 1673, 1672
1183, 1650, 1651, 1674, 1673
1184, 1651, 1652, 1675, 1674
1185, 1652, 1653, 1676, 1675
1186, 1653, 1654, 1677, 1676
1187, 1654, 1655, 1678, 1677
1188, 1655, 1656, 1679, 1678
1189, 1656, 1657, 1680, 1679
1190, 1657, 1658, 1681, 1680
1191, 1658, 1659, 1682, 1681
1192, 1659, 1660, 1683, 1682
1193, 1660, 1661, 1684, 1683
1194, 1661, 1662, 1685, 1684
1195, 1662, 1663, 1686, 1685
1196, 1663, 1664, 1687, 1686
1197, 1664, 1665, 1688, 1687
1198, 1665, 1666, 1689, 1688
1199, 1666, 1667, 1690, 1689
1200, 1667,  147,  148, 1690
1201,  230, 1668, 1691,  229
1202, 1668, 1669, 1692, 1691
1203, 1669, 1670, 1693, 1692
1204, 1670, 1671, 1694, 1693
1205, 1671, 1672, 1695, 1694
1206, 1672, 1673, 1696, 1695
1207, 1673, 1674, 1697, 1696
1208, 1674, 1675, 1698, 1697
1209, 1675, 1676, 1699, 1698
1210, 1676, 1677, 1700, 1699
1211, 1677, 1678, 1701, 1700
1212, 1678, 1679, 1702, 1701
1213, 1679, 1680, 1703, 1702
1214, 1680, 1681, 1704, 1703
1215, 1681, 1682, 1705, 1704
1216, 1682, 1683, 1706, 1705
1217, 1683, 1684, 1707, 1706
1218, 1684, 1685, 1708, 1707
1219, 1685, 1686, 1709, 1708
1220, 1686, 1687, 1710, 1709
1221, 1687, 1688, 1711, 1710
1222, 1688, 1689, 1712, 1711
1223, 1689, 1690, 1713, 1712
1224, 1690,  148,  149, 1713
1225,  229, 1691, 1714,  228
1226, 1691, 1692, 1715, 1714
1227, 1692, 1693, 1716, 1715
1228, 1693, 1694, 1717, 1716
1229, 1694, 1695, 1718, 1717
1230, 1695, 1696, 1719, 1718
1231, 1696, 1697, 1720, 1719
1232, 1697, 1698, 1721, 1720
1233, 1698, 1699, 1722, 1721
1234, 1699, 1700, 1723, 1722
1235, 1700, 1701, 1724, 1723
1236, 1701, 1702, 1725, 1724
1237, 1702, 1703, 1726, 1725
1238, 1703, 1704, 1727, 1726
1239, 1704, 1705, 1728, 1727
1240, 1705, 1706, 1729, 1728
1241, 1706, 1707, 1730, 1729
1242, 1707, 1708, 1731, 1730
1243, 1708, 1709, 1732, 1731
1244, 1709, 1710, 1733, 1732
1245, 1710, 1711, 1734, 1733
1246, 1711, 1712, 1735, 1734
1247, 1712, 1713, 1736, 1735
1248, 1713,  149,  150, 1736
1249,  228, 1714, 1737,  227
1250, 1714, 1715, 1738, 1737
1251, 1715, 1716, 1739, 1738
1252, 1716, 1717, 1740, 1739
1253, 1717, 1718, 1741, 1740
1254, 1718, 1719, 1742, 1741
1255, 1719, 1720, 1743, 1742
1256, 1720, 1721, 1744, 1743
1257, 1721, 1722, 1745, 1744
1258, 1722, 1723, 1746, 1745
1259, 1723, 1724, 1747, 1746
1260, 1724, 1725, 1748, 1747
1261, 1725, 1726, 1749, 1748
1262, 1726, 1727, 1750, 1749
1263, 1727, 1728, 1751, 1750
1264, 1728, 1729, 1752, 1751
1265, 1729, 1730, 1753, 1752
1266, 1730, 1731, 1754, 1753
1267, 1731, 1732, 1755, 1754
1268, 1732, 1733, 1756, 1755
1269, 1733, 1734, 1757, 1756
1270, 1734, 1735, 1758, 1757
1271, 1735, 1736, 1759, 1758
1272, 1736,  150,  151, 1759
1273,  227, 1737, 1760,  226
1274, 1737, 1738, 1761, 1760
1275, 1738, 1739, 1762, 1761
1276, 1739, 1740, 1763, 1762
1277, 1740, 1741, 1764, 1763
1278, 1741, 1742, 1765, 1764
1279, 1742, 1743, 1766, 1765
1280, 1743, 1744, 1767, 1766
1281, 1744, 1745, 1768, 1767
1282, 1745, 1746, 1769, 1768
1283, 1746, 1747, 1770, 1769
1284, 1747, 1748, 1771, 1770
1285, 1748, 1749, 1772, 1771
1286, 1749, 1750, 1773, 1772
1287, 1750, 1751, 1774, 1773
1288, 1751, 1752, 1775, 1774
1289, 1752, 1753, 1776, 1775
1290, 1753, 1754, 1777, 1776
1291, 1754, 1755, 1778, 1777
1292, 1755, 1756, 1779, 1778
1293, 1756, 1757, 1780, 1779
1294, 1757, 1758, 1781, 1780
1295, 1758, 1759, 1782, 1781
1296, 1759,  151,  152, 1782
1297,  226, 1760, 1783,  225
1298, 1760, 1761, 1784, 1783
1299, 1761, 1762, 1785, 1784
1300, 1762, 1763, 1786, 1785
1301, 1763, 1764, 1787, 1786
1302, 1764, 1765, 1788, 1787
1303, 1765, 1766, 1789, 1788
1304, 1766, 1767, 1790, 1789
1305, 1767, 1768, 1791, 1790
1306, 1768, 1769, 1792, 1791
1307, 1769, 1770, 1793, 1792
1308, 1770, 1771, 1794, 1793
1309, 1771, 1772, 1795, 1794
1310, 1772, 1773, 1796, 1795
1311, 1773, 1774, 1797, 1796
1312, 1774, 1775, 1798, 1797
1313, 1775, 1776, 1799, 1798
1314, 1776, 1777, 1800, 1799
1315, 1777, 1778, 1801, 1800
1316, 1778, 1779, 1802, 1801
1317, 1779, 1780, 1803, 1802
1318, 1780, 1781, 1804, 1803
1319, 1781, 1782, 1805, 1804
1320, 1782,  152,  153, 1805
1321,  225, 1783, 1806,  224
1322, 1783, 1784, 1807, 1806
1323, 1784, 1785, 1808, 1807
1324, 1785, 1786, 1809, 1808
1325, 1786, 1787, 1810, 1809
1326, 1787, 1788, 1811, 1810
1327, 1788, 1789, 1812, 1811
1328, 1789, 1790, 1813, 1812
1329, 1790, 1791, 1814, 1813
1330, 1791, 1792, 1815, 1814
1331, 1792, 1793, 1816, 1815
1332, 1793, 1794, 1817, 1816
1333, 1794, 1795, 1818, 1817
1334, 1795, 1796, 1819, 1818
1335, 1796, 1797, 1820, 1819
1336, 1797, 1798, 1821, 1820
1337, 1798, 1799, 1822, 1821
1338, 1799, 1800, 1823, 1822
1339, 1800, 1801, 1824, 1823
1340, 1801, 1802, 1825, 1824
1341, 1802, 1803, 1826, 1825
1342, 1803, 1804, 1827, 1826
1343, 1804, 1805, 1828, 1827
1344, 1805,  153,  154, 1828
1345,  224, 1806, 1829,  223
1346, 1806, 1807, 1830, 1829
1347, 1807, 1808, 1831, 1830
1348, 1808, 1809, 1832, 1831
1349, 1809, 1810, 1833, 1832
1350, 1810, 1811, 1834, 1833
1351, 1811, 1812, 1835, 1834
1352, 1812, 1813, 1836, 1835
1353, 1813, 1814, 1837, 1836
1354, 1814, 1815, 1838, 1837
1355, 1815, 1816, 1839, 1838
1356, 1816, 1817, 1840, 1839
1357, 1817, 1818, 1841, 1840
1358, 1818, 1819, 1842, 1841
1359, 1819, 1820, 1843, 1842
1360, 1820, 1821, 1844, 1843
1361, 1821, 1822, 1845, 1844
1362, 1822, 1823, 1846, 1845
1363, 1823, 1824, 1847, 1846
1364, 1824, 1825, 1848, 1847
1365, 1825, 1826, 1849, 1848
1366, 1826, 1827, 1850, 1849
1367, 1827, 1828, 1851, 1850
1368, 1828,  154,  155, 1851
1369,  223, 1829, 1852,  222
1370, 1829, 1830, 1853, 1852
1371, 1830, 1831, 1854, 1853
1372, 1831, 1832, 1855, 1854
1373, 1832, 1833, 1856, 1855
1374, 1833, 1834, 1857, 1856
1375, 1834, 1835, 1858, 1857
1376, 1835, 1836, 1859, 1858
1377, 1836, 1837, 1860, 1859
1378, 1837, 1838, 1861, 1860
1379, 1838, 1839, 1862, 1861
1380, 1839, 1840, 1863, 1862
1381, 1840, 1841, 1864, 1863
1382, 1841, 1842, 1865, 1864
1383, 1842, 1843, 1866, 1865
1384, 1843, 1844, 1867, 1866
1385, 1844, 1845, 1868, 1867
1386, 1845, 1846, 1869, 1868
1387, 1846, 1847, 1870, 1869
1388, 1847, 1848, 1871, 1870
1389, 1848, 1849, 1872, 1871
1390, 1849, 1850, 1873, 1872
1391, 1850, 1851, 1874, 1873
1392, 1851,  155,  156, 1874
1393,  222, 1852, 1875,  221
1394, 1852, 1853, 1876, 1875
1395, 1853, 1854, 1877, 1876
1396, 1854, 1855, 1878, 1877
1397, 1855, 1856, 1879, 1878
1398, 1856, 1857, 1880, 1879
1399, 1857, 1858, 1881, 1880
1400, 1858, 1859, 1882, 1881
1401, 1859, 1860, 1883, 1882
1402, 1860, 1861, 1884, 1883
1403, 1861, 1862, 1885, 1884
1404, 1862, 1863, 1886, 1885
1405, 1863, 1864, 1887, 1886
1406, 1864, 1865, 1888, 1887
1407, 1865, 1866, 1889, 1888
1408, 1866, 1867, 1890, 1889
1409, 1867, 1868, 1891, 1890
1410, 1868, 1869, 1892, 1891
1411, 1869, 1870, 1893, 1892
1412, 1870, 1871, 1894, 1893
1413, 1871, 1872, 1895, 1894
1414, 1872, 1873, 1896, 1895
1415, 1873, 1874, 1897, 1896
1416, 1874,  156,  157, 1897
1417,  221, 1875, 1898,  220
1418, 1875, 1876, 1899, 1898
1419, 1876, 1877, 1900, 1899
1420, 1877, 1878, 1901, 1900
1421, 1878, 1879, 1902, 1901
1422, 1879, 1880, 1903, 1902
1423, 1880, 1881, 1904, 1903
1424, 1881, 1882, 1905, 1904
1425, 1882, 1883, 1906, 1905
1426, 1883, 1884, 1907, 1906
1427, 1884, 1885, 1908, 1907
1428, 1885, 1886, 1909, 1908
1429, 1886, 1887, 1910, 1909
1430, 1887, 1888, 1911, 1910
1431, 1888, 1889, 1912, 1911
1432, 1889, 1890, 1913, 1912
1433, 1890, 1891, 1914, 1913
1434, 1891, 1892, 1915, 1914
1435, 1892, 1893, 1916, 1915
1436, 1893, 1894, 1917, 1916
1437, 1894, 1895, 1918, 1917
1438, 1895, 1896, 1919, 1918
1439, 1896, 1897, 1920, 1919
1440, 1897,  157,  158, 1920
1441,  220, 1898, 1921,  219
1442, 1898, 1899, 1922, 1921
1443, 1899, 1900, 1923, 1922
1444, 1900, 1901, 1924, 1923
1445, 1901, 1902, 1925, 1924
1446, 1902, 1903, 1926, 1925
1447, 1903, 1904, 1927, 1926
1448, 1904, 1905, 1928, 1927
1449, 1905, 1906, 1929, 1928
1450, 1906, 1907, 1930, 1929
1451, 1907, 1908, 1931, 1930
1452, 1908, 1909, 1932, 1931
1453, 1909, 1910, 1933, 1932
1454, 1910, 1911, 1934, 1933
1455, 1911, 1912, 1935, 1934
1456, 1912, 1913, 1936, 1935
1457, 1913, 1914, 1937, 1936
1458, 1914, 1915, 1938, 1937
1459, 1915, 1916, 1939, 1938
1460, 1916, 1917, 1940, 1939
1461, 1917, 1918, 1941, 1940
1462, 1918, 1919, 1942, 1941
1463, 1919, 1920, 1943, 1942
1464, 1920,  158,  159, 1943
1465,  219, 1921, 1944,  218
1466, 1921, 1922, 1945, 1944
1467, 1922, 1923, 1946, 1945
1468, 1923, 1924, 1947, 1946
1469, 1924, 1925, 1948, 1947
1470, 1925, 1926, 1949, 1948
1471, 1926, 1927, 1950, 1949
1472, 1927, 1928, 1951, 1950
1473, 1928, 1929, 1952, 1951
1474, 1929, 1930, 1953, 1952
1475, 1930, 1931, 1954, 1953
1476, 1931, 1932, 1955, 1954
1477, 1932, 1933, 1956, 1955
1478, 1933, 1934, 1957, 1956
1479, 1934, 1935, 1958, 1957
1480, 1935, 1936, 1959, 1958
1481, 1936, 1937, 1960, 1959
1482, 1937, 1938, 1961, 1960
1483, 1938, 1939, 1962, 1961
1484, 1939, 1940, 1963, 1962
1485, 1940, 1941, 1964, 1963
1486, 1941, 1942, 1965, 1964
1487, 1942, 1943, 1966, 1965
1488, 1943,  159,  160, 1966
1489,  218, 1944, 1967,  217
1490, 1944, 1945, 1968, 1967
1491, 1945, 1946, 1969, 1968
1492, 1946, 1947, 1970, 1969
1493, 1947, 1948, 1971, 1970
1494, 1948, 1949, 1972, 1971
1495, 1949, 1950, 1973, 1972
1496, 1950, 1951, 1974, 1973
1497, 1951, 1952, 1975, 1974
1498, 1952, 1953, 1976, 1975
1499, 1953, 1954, 1977, 1976
1500, 1954, 1955, 1978, 1977
1501, 1955, 1956, 1979, 1978
1502, 1956, 1957, 1980, 1979
1503, 1957, 1958, 1981, 1980
1504, 1958, 1959, 1982, 1981
1505, 1959, 1960, 1983, 1982
1506, 1960, 1961, 1984, 1983
1507, 1961, 1962, 1985, 1984
1508, 1962, 1963, 1986, 1985
1509, 1963, 1964, 1987, 1986
1510, 1964, 1965, 1988, 1987
1511, 1965, 1966, 1989, 1988
1512, 1966,  160,  161, 1989
1513,  217, 1967, 1990,  216
1514, 1967, 1968, 1991, 1990
1515, 1968, 1969, 1992, 1991
1516, 1969, 1970, 1993, 1992
1517, 1970, 1971, 1994, 1993
1518, 1971, 1972, 1995, 1994
1519, 1972, 1973, 1996, 1995
1520, 1973, 1974, 1997, 1996
1521, 1974, 1975, 1998, 1997
1522, 1975, 1976, 1999, 1998
1523, 1976, 1977, 2000, 1999
1524, 1977, 1978, 2001, 2000
1525, 1978, 1979, 2002, 2001
1526, 1979, 1980, 2003, 2002
1527, 1980, 1981, 2004, 2003
1528, 1981, 1982, 2005, 2004
1529, 1982, 1983, 2006, 2005
1530, 1983, 1984, 2007, 2006
1531, 1984, 1985, 2008, 2007
1532, 1985, 1986, 2009, 2008
1533, 1986, 1987, 2010, 2009
1534, 1987, 1988, 2011, 2010
1535, 1988, 1989, 2012, 2011
1536, 1989,  161,  162, 2012
1537,  216, 1990, 2013,  215
1538, 1990, 1991, 2014, 2013
1539, 1991, 1992, 2015, 2014
1540, 1992, 1993, 2016, 2015
1541, 1993, 1994, 2017, 2016
1542, 1994, 1995, 2018, 2017
1543, 1995, 1996, 2019, 2018
1544, 1996, 1997, 2020, 2019
1545, 1997, 1998, 2021, 2020
1546, 1998, 1999, 2022, 2021
1547, 1999, 2000, 2023, 2022
1548, 2000, 2001, 2024, 2023
1549, 2001, 2002, 2025, 2024
1550, 2002, 2003, 2026, 2025
1551, 2003, 2004, 2027, 2026
1552, 2004, 2005, 2028, 2027
1553, 2005, 2006, 2029, 2028
1554, 2006, 2007, 2030, 2029
1555, 2007, 2008, 2031, 2030
1556, 2008, 2009, 2032, 2031
1557, 2009, 2010, 2033, 2032
1558, 2010, 2011, 2034, 2033
1559, 2011, 2012, 2035, 2034
1560, 2012,  162,  163, 2035
1561,  215, 2013, 2036,  214
1562, 2013, 2014, 2037, 2036
1563, 2014, 2015, 2038, 2037
1564, 2015, 2016, 2039, 2038
1565, 2016, 2017, 2040, 2039
1566, 2017, 2018, 2041, 2040
1567, 2018, 2019, 2042, 2041
1568, 2019, 2020, 2043, 2042
1569, 2020, 2021, 2044, 2043
1570, 2021, 2022, 2045, 2044
1571, 2022, 2023, 2046, 2045
1572, 2023, 2024, 2047, 2046
1573, 2024, 2025, 2048, 2047
1574, 2025, 2026, 2049, 2048
1575, 2026, 2027, 2050, 2049
1576, 2027, 2028, 2051, 2050
1577, 2028, 2029, 2052, 2051
1578, 2029, 2030, 2053, 2052
1579, 2030, 2031, 2054, 2053
1580, 2031, 2032, 2055, 2054
1581, 2032, 2033, 2056, 2055
1582, 2033, 2034, 2057, 2056
1583, 2034, 2035, 2058, 2057
1584, 2035,  163,  164, 2058
1585,  214, 2036, 2059,  213
1586, 2036, 2037, 2060, 2059
1587, 2037, 2038, 2061, 2060
1588, 2038, 2039, 2062, 2061
1589, 2039, 2040, 2063, 2062
1590, 2040, 2041, 2064, 2063
1591, 2041, 2042, 2065, 2064
1592, 2042, 2043, 2066, 2065
1593, 2043, 2044, 2067, 2066
1594, 2044, 2045, 2068, 2067
1595, 2045, 2046, 2069, 2068
1596, 2046, 2047, 2070, 2069
1597, 2047, 2048, 2071, 2070
1598, 2048, 2049, 2072, 2071
1599, 2049, 2050, 2073, 2072
1600, 2050, 2051, 2074, 2073
1601, 2051, 2052, 2075, 2074
1602, 2052, 2053, 2076, 2075
1603, 2053, 2054, 2077, 2076
1604, 2054, 2055, 2078, 2077
1605, 2055, 2056, 2079, 2078
1606, 2056, 2057, 2080, 2079
1607, 2057, 2058, 2081, 2080
1608, 2058,  164,  165, 2081
1609,  213, 2059, 2082,  212
1610, 2059, 2060, 2083, 2082
1611, 2060, 2061, 2084, 2083
1612, 2061, 2062, 2085, 2084
1613, 2062, 2063, 2086, 2085
1614, 2063, 2064, 2087, 2086
1615, 2064, 2065, 2088, 2087
1616, 2065, 2066, 2089, 2088
1617, 2066, 2067, 2090, 2089
1618, 2067, 2068, 2091, 2090
1619, 2068, 2069, 2092, 2091
1620, 2069, 2070, 2093, 2092
1621, 2070, 2071, 2094, 2093
1622, 2071, 2072, 2095, 2094
1623, 2072, 2073, 2096, 2095
1624, 2073, 2074, 2097, 2096
1625, 2074, 2075, 2098, 2097
1626, 2075, 2076, 2099, 2098
1627, 2076, 2077, 2100, 2099
1628, 2077, 2078, 2101, 2100
1629, 2078, 2079, 2102, 2101
1630, 2079, 2080, 2103, 2102
1631, 2080, 2081, 2104, 2103
1632, 2081,  165,  166, 2104
1633,  212, 2082, 2105,  211
1634, 2082, 2083, 2106, 2105
1635, 2083, 2084, 2107, 2106
1636, 2084, 2085, 2108, 2107
1637, 2085, 2086, 2109, 2108
1638, 2086, 2087, 2110, 2109
1639, 2087, 2088, 2111, 2110
1640, 2088, 2089, 2112, 2111
1641, 2089, 2090, 2113, 2112
1642, 2090, 2091, 2114, 2113
1643, 2091, 2092, 2115, 2114
1644, 2092, 2093, 2116, 2115
1645, 2093, 2094, 2117, 2116
1646, 2094, 2095, 2118, 2117
1647, 2095, 2096, 2119, 2118
1648, 2096, 2097, 2120, 2119
1649, 2097, 2098, 2121, 2120
1650, 2098, 2099, 2122, 2121
1651, 2099, 2100, 2123, 2122
1652, 2100, 2101, 2124, 2123
1653, 2101, 2102, 2125, 2124
1654, 2102, 2103, 2126, 2125
1655, 2103, 2104, 2127, 2126
1656, 2104,  166,  167, 2127
1657,  211, 2105, 2128,  210
1658, 2105, 2106, 2129, 2128
1659, 2106, 2107, 2130, 2129
1660, 2107, 2108, 2131, 2130
1661, 2108, 2109, 2132, 2131
1662, 2109, 2110, 2133, 2132
1663, 2110, 2111, 2134, 2133
1664, 2111, 2112, 2135, 2134
1665, 2112, 2113, 2136, 2135
1666, 2113, 2114, 2137, 2136
1667, 2114, 2115, 2138, 2137
1668, 2115, 2116, 2139, 2138
1669, 2116, 2117, 2140, 2139
1670, 2117, 2118, 2141, 2140
1671, 2118, 2119, 2142, 2141
1672, 2119, 2120, 2143, 2142
1673, 2120, 2121, 2144, 2143
1674, 2121, 2122, 2145, 2144
1675, 2122, 2123, 2146, 2145
1676, 2123, 2124, 2147, 2146
1677, 2124, 2125, 2148, 2147
1678, 2125, 2126, 2149, 2148
1679, 2126, 2127, 2150, 2149
1680, 2127,  167,  168, 2150
1681,  210, 2128, 2151,  209
1682, 2128, 2129, 2152, 2151
1683, 2129, 2130, 2153, 2152
1684, 2130, 2131, 2154, 2153
1685, 2131, 2132, 2155, 2154
1686, 2132, 2133, 2156, 2155
1687, 2133, 2134, 2157, 2156
1688, 2134, 2135, 2158, 2157
1689, 2135, 2136, 2159, 2158
1690, 2136, 2137, 2160, 2159
1691, 2137, 2138, 2161, 2160
1692, 2138, 2139, 2162, 2161
1693, 2139, 2140, 2163, 2162
1694, 2140, 2141, 2164, 2163
1695, 2141, 2142, 2165, 2164
1696, 2142, 2143, 2166, 2165
1697, 2143, 2144, 2167, 2166
1698, 2144, 2145, 2168, 2167
1699, 2145, 2146, 2169, 2168
1700, 2146, 2147, 2170, 2169
1701, 2147, 2148, 2171, 2170
1702, 2148, 2149, 2172, 2171
1703, 2149, 2150, 2173, 2172
1704, 2150,  168,  169, 2173
1705,  209, 2151, 2174,  208
1706, 2151, 2152, 2175, 2174
1707, 2152, 2153, 2176, 2175
1708, 2153, 2154, 2177, 2176
1709, 2154, 2155, 2178, 2177
1710, 2155, 2156, 2179, 2178
1711, 2156, 2157, 2180, 2179
1712, 2157, 2158, 2181, 2180
1713, 2158, 2159, 2182, 2181
1714, 2159, 2160, 2183, 2182
1715, 2160, 2161, 2184, 2183
1716, 2161, 2162, 2185, 2184
1717, 2162, 2163, 2186, 2185
1718, 2163, 2164, 2187, 2186
1719, 2164, 2165, 2188, 2187
1720, 2165, 2166, 2189, 2188
1721, 2166, 2167, 2190, 2189
1722, 2167, 2168, 2191, 2190
1723, 2168, 2169, 2192, 2191
1724, 2169, 2170, 2193, 2192
1725, 2170, 2171, 2194, 2193
1726, 2171, 2172, 2195, 2194
1727, 2172, 2173, 2196, 2195
1728, 2173,  169,  170, 2196
1729,  208, 2174, 2197,  207
1730, 2174, 2175, 2198, 2197
1731, 2175, 2176, 2199, 2198
1732, 2176, 2177, 2200, 2199
1733, 2177, 2178, 2201, 2200
1734, 2178, 2179, 2202, 2201
1735, 2179, 2180, 2203, 2202
1736, 2180, 2181, 2204, 2203
1737, 2181, 2182, 2205, 2204
1738, 2182, 2183, 2206, 2205
1739, 2183, 2184, 2207, 2206
1740, 2184, 2185, 2208, 2207
1741, 2185, 2186, 2209, 2208
1742, 2186, 2187, 2210, 2209
1743, 2187, 2188, 2211, 2210
1744, 2188, 2189, 2212, 2211
1745, 2189, 2190, 2213, 2212
1746, 2190, 2191, 2214, 2213
1747, 2191, 2192, 2215, 2214
1748, 2192, 2193, 2216, 2215
1749, 2193, 2194, 2217, 2216
1750, 2194, 2195, 2218, 2217
1751, 2195, 2196, 2219, 2218
1752, 2196,  170,  171, 2219
1753,  207, 2197, 2220,  206
1754, 2197, 2198, 2221, 2220
1755, 2198, 2199, 2222, 2221
1756, 2199, 2200, 2223, 2222
1757, 2200, 2201, 2224, 2223
1758, 2201, 2202, 2225, 2224
1759, 2202, 2203, 2226, 2225
1760, 2203, 2204, 2227, 2226
1761, 2204, 2205, 2228, 2227
1762, 2205, 2206, 2229, 2228
1763, 2206, 2207, 2230, 2229
1764, 2207, 2208, 2231, 2230
1765, 2208, 2209, 2232, 2231
1766, 2209, 2210, 2233, 2232
1767, 2210, 2211, 2234, 2233
1768, 2211, 2212, 2235, 2234
1769, 2212, 2213, 2236, 2235
1770, 2213, 2214, 2237, 2236
1771, 2214, 2215, 2238, 2237
1772, 2215, 2216, 2239, 2238
1773, 2216, 2217, 2240, 2239
1774, 2217, 2218, 2241, 2240
1775, 2218, 2219, 2242, 2241
1776, 2219,  171,  172, 2242
1777,  206, 2220, 2243,  205
1778, 2220, 2221, 2244, 2243
1779, 2221, 2222, 2245, 2244
1780, 2222, 2223, 2246, 2245
1781, 2223, 2224, 2247, 2246
1782, 2224, 2225, 2248, 2247
1783, 2225, 2226, 2249, 2248
1784, 2226, 2227, 2250, 2249
1785, 2227, 2228, 2251, 2250
1786, 2228, 2229, 2252, 2251
1787, 2229, 2230, 2253, 2252
1788, 2230, 2231, 2254, 2253
1789, 2231, 2232, 2255, 2254
1790, 2232, 2233, 2256, 2255
1791, 2233, 2234, 2257, 2256
1792, 2234, 2235, 2258, 2257
1793, 2235, 2236, 2259, 2258
1794, 2236, 2237, 2260, 2259
1795, 2237, 2238, 2261, 2260
1796, 2238, 2239, 2262, 2261
1797, 2239, 2240, 2263, 2262
1798, 2240, 2241, 2264, 2263
1799, 2241, 2242, 2265, 2264
1800, 2242,  172,  173, 2265
1801,  205, 2243, 2266,  204
1802, 2243, 2244, 2267, 2266
1803, 2244, 2245, 2268, 2267
1804, 2245, 2246, 2269, 2268
1805, 2246, 2247, 2270, 2269
1806, 2247, 2248, 2271, 2270
1807, 2248, 2249, 2272, 2271
1808, 2249, 2250, 2273, 2272
1809, 2250, 2251, 2274, 2273
1810, 2251, 2252, 2275, 2274
1811, 2252, 2253, 2276, 2275
1812, 2253, 2254, 2277, 2276
1813, 2254, 2255, 2278, 2277
1814, 2255, 2256, 2279, 2278
1815, 2256, 2257, 2280, 2279
1816, 2257, 2258, 2281, 2280
1817, 2258, 2259, 2282, 2281
1818, 2259, 2260, 2283, 2282
1819, 2260, 2261, 2284, 2283
1820, 2261, 2262, 2285, 2284
1821, 2262, 2263, 2286, 2285
1822, 2263, 2264, 2287, 2286
1823, 2264, 2265, 2288, 2287
1824, 2265,  173,  174, 2288
1825,  204, 2266, 2289,  203
1826, 2266, 2267, 2290, 2289
1827, 2267, 2268, 2291, 2290
1828, 2268, 2269, 2292, 2291
1829, 2269, 2270, 2293, 2292
1830, 2270, 2271, 2294, 2293
1831, 2271, 2272, 2295, 2294
1832, 2272, 2273, 2296, 2295
1833, 2273, 2274, 2297, 2296
1834, 2274, 2275, 2298, 2297
1835, 2275, 2276, 2299, 2298
1836, 2276, 2277, 2300, 2299
1837, 2277, 2278, 2301, 2300
1838, 2278, 2279, 2302, 2301
1839, 2279, 2280, 2303, 2302
1840, 2280, 2281, 2304, 2303
1841, 2281, 2282, 2305, 2304
1842, 2282, 2283, 2306, 2305
1843, 2283, 2284, 2307, 2306
1844, 2284, 2285, 2308, 2307
1845, 2285, 2286, 2309, 2308
1846, 2286, 2287, 2310, 2309
1847, 2287, 2288, 2311, 2310
1848, 2288,  174,  175, 2311
1849,  203, 2289, 2312,  202
1850, 2289, 2290, 2313, 2312
1851, 2290, 2291, 2314, 2313
1852, 2291, 2292, 2315, 2314
1853, 2292, 2293, 2316, 2315
1854, 2293, 2294, 2317, 2316
1855, 2294, 2295, 2318, 2317
1856, 2295, 2296, 2319, 2318
1857, 2296, 2297, 2320, 2319
1858, 2297, 2298, 2321, 2320
1859, 2298, 2299, 2322, 2321
1860, 2299, 2300, 2323, 2322
1861, 2300, 2301, 2324, 2323
1862, 2301, 2302, 2325, 2324
1863, 2302, 2303, 2326, 2325
1864, 2303, 2304, 2327, 2326
1865, 2304, 2305, 2328, 2327
1866, 2305, 2306, 2329, 2328
1867, 2306, 2307, 2330, 2329
1868, 2307, 2308, 2331, 2330
1869, 2308, 2309, 2332, 2331
1870, 2309, 2310, 2333, 2332
1871, 2310, 2311, 2334, 2333
1872, 2311,  175,  176, 2334
1873,  202, 2312, 2335,  201
1874, 2312, 2313, 2336, 2335
1875, 2313, 2314, 2337, 2336
1876, 2314, 2315, 2338, 2337
1877, 2315, 2316, 2339, 2338
1878, 2316, 2317, 2340, 2339
1879, 2317, 2318, 2341, 2340
1880, 2318, 2319, 2342, 2341
1881, 2319, 2320, 2343, 2342
1882, 2320, 2321, 2344, 2343
1883, 2321, 2322, 2345, 2344
1884, 2322, 2323, 2346, 2345
1885, 2323, 2324, 2347, 2346
1886, 2324, 2325, 2348, 2347
1887, 2325, 2326, 2349, 2348
1888, 2326, 2327, 2350, 2349
1889, 2327, 2328, 2351, 2350
1890, 2328, 2329, 2352, 2351
1891, 2329, 2330, 2353, 2352
1892, 2330, 2331, 2354, 2353
1893, 2331, 2332, 2355, 2354
1894, 2332, 2333, 2356, 2355
1895, 2333, 2334, 2357, 2356
1896, 2334,  176,  177, 2357
1897,  201, 2335,  200,    6
1898, 2335, 2336,  199,  200
1899, 2336, 2337,  198,  199
1900, 2337, 2338,  197,  198
1901, 2338, 2339,  196,  197
1902, 2339, 2340,  195,  196
1903, 2340, 2341,  194,  195
1904, 2341, 2342,  193,  194
1905, 2342, 2343,  192,  193
1906, 2343, 2344,  191,  192
1907, 2344, 2345,  190,  191
1908, 2345, 2346,  189,  190
1909, 2346, 2347,  188,  189
1910, 2347, 2348,  187,  188
1911, 2348, 2349,  186,  187
1912, 2349, 2350,  185,  186
1913, 2350, 2351,  184,  185
1914, 2351, 2352,  183,  184
1915, 2352, 2353,  182,  183
1916, 2353, 2354,  181,  182
1917, 2354, 2355,  180,  181
1918, 2355, 2356,  179,  180
1919, 2356, 2357,  178,  179
1920, 2357,  177,    5,  178
1921,    6,  200, 2358,  340
1922,  200,  199, 2359, 2358
1923,  199,  198, 2360, 2359
1924,  198,  197, 2361, 2360
1925,  197,  196, 2362, 2361
1926,  196,  195, 2363, 2362
1927,  195,  194, 2364, 2363
1928,  194,  193, 2365, 2364
1929,  193,  192, 2366, 2365
1930,  192,  191, 2367, 2366
1931,  191,  190, 2368, 2367
1932,  190,  189, 2369, 2368
1933,  189,  188, 2370, 2369
1934,  188,  187, 2371, 2370
1935,  187,  186, 2372, 2371
1936,  186,  185, 2373, 2372
1937,  185,  184, 2374, 2373
1938,  184,  183, 2375, 2374
1939,  183,  182, 2376, 2375
1940,  182,  181, 2377, 2376
1941,  181,  180, 2378, 2377
1942,  180,  179, 2379, 2378
1943,  179,  178, 2380, 2379
1944,  178,    5,  240, 2380
1945,  340, 2358, 2381,  339
1946, 2358, 2359, 2382, 2381
1947, 2359, 2360, 2383, 2382
1948, 2360, 2361, 2384, 2383
1949, 2361, 2362, 2385, 2384
1950, 2362, 2363, 2386, 2385
1951, 2363, 2364, 2387, 2386
1952, 2364, 2365, 2388, 2387
1953, 2365, 2366, 2389, 2388
1954, 2366, 2367, 2390, 2389
1955, 2367, 2368, 2391, 2390
1956, 2368, 2369, 2392, 2391
1957, 2369, 2370, 2393, 2392
1958, 2370, 2371, 2394, 2393
1959, 2371, 2372, 2395, 2394
1960, 2372, 2373, 2396, 2395
1961, 2373, 2374, 2397, 2396
1962, 2374, 2375, 2398, 2397
1963, 2375, 2376, 2399, 2398
1964, 2376, 2377, 2400, 2399
1965, 2377, 2378, 2401, 2400
1966, 2378, 2379, 2402, 2401
1967, 2379, 2380, 2403, 2402
1968, 2380,  240,  241, 2403
1969,  339, 2381, 2404,  338
1970, 2381, 2382, 2405, 2404
1971, 2382, 2383, 2406, 2405
1972, 2383, 2384, 2407, 2406
1973, 2384, 2385, 2408, 2407
1974, 2385, 2386, 2409, 2408
1975, 2386, 2387, 2410, 2409
1976, 2387, 2388, 2411, 2410
1977, 2388, 2389, 2412, 2411
1978, 2389, 2390, 2413, 2412
1979, 2390, 2391, 2414, 2413
1980, 2391, 2392, 2415, 2414
1981, 2392, 2393, 2416, 2415
1982, 2393, 2394, 2417, 2416
1983, 2394, 2395, 2418, 2417
1984, 2395, 2396, 2419, 2418
1985, 2396, 2397, 2420, 2419
1986, 2397, 2398, 2421, 2420
1987, 2398, 2399, 2422, 2421
1988, 2399, 2400, 2423, 2422
1989, 2400, 2401, 2424, 2423
1990, 2401, 2402, 2425, 2424
1991, 2402, 2403, 2426, 2425
1992, 2403,  241,  242, 2426
1993,  338, 2404, 2427,  337
1994, 2404, 2405, 2428, 2427
1995, 2405, 2406, 2429, 2428
1996, 2406, 2407, 2430, 2429
1997, 2407, 2408, 2431, 2430
1998, 2408, 2409, 2432, 2431
1999, 2409, 2410, 2433, 2432
2000, 2410, 2411, 2434, 2433
2001, 2411, 2412, 2435, 2434
2002, 2412, 2413, 2436, 2435
2003, 2413, 2414, 2437, 2436
2004, 2414, 2415, 2438, 2437
2005, 2415, 2416, 2439, 2438
2006, 2416, 2417, 2440, 2439
2007, 2417, 2418, 2441, 2440
2008, 2418, 2419, 2442, 2441
2009, 2419, 2420, 2443, 2442
2010, 2420, 2421, 2444, 2443
2011, 2421, 2422, 2445, 2444
2012, 2422, 2423, 2446, 2445
2013, 2423, 2424, 2447, 2446
2014, 2424, 2425, 2448, 2447
2015, 2425, 2426, 2449, 2448
2016, 2426,  242,  243, 2449
2017,  337, 2427, 2450,  336
2018, 2427, 2428, 2451, 2450
2019, 2428, 2429, 2452, 2451
2020, 2429, 2430, 2453, 2452
2021, 2430, 2431, 2454, 2453
2022, 2431, 2432, 2455, 2454
2023, 2432, 2433, 2456, 2455
2024, 2433, 2434, 2457, 2456
2025, 2434, 2435, 2458, 2457
2026, 2435, 2436, 2459, 2458
2027, 2436, 2437, 2460, 2459
2028, 2437, 2438, 2461, 2460
2029, 2438, 2439, 2462, 2461
2030, 2439, 2440, 2463, 2462
2031, 2440, 2441, 2464, 2463
2032, 2441, 2442, 2465, 2464
2033, 2442, 2443, 2466, 2465
2034, 2443, 2444, 2467, 2466
2035, 2444, 2445, 2468, 2467
2036, 2445, 2446, 2469, 2468
2037, 2446, 2447, 2470, 2469
2038, 2447, 2448, 2471, 2470
2039, 2448, 2449, 2472, 2471
2040, 2449,  243,  244, 2472
2041,  336, 2450, 2473,  335
2042, 2450, 2451, 2474, 2473
2043, 2451, 2452, 2475, 2474
2044, 2452, 2453, 2476, 2475
2045, 2453, 2454, 2477, 2476
2046, 2454, 2455, 2478, 2477
2047, 2455, 2456, 2479, 2478
2048, 2456, 2457, 2480, 2479
2049, 2457, 2458, 2481, 2480
2050, 2458, 2459, 2482, 2481
2051, 2459, 2460, 2483, 2482
2052, 2460, 2461, 2484, 2483
2053, 2461, 2462, 2485, 2484
2054, 2462, 2463, 2486, 2485
2055, 2463, 2464, 2487, 2486
2056, 2464, 2465, 2488, 2487
2057, 2465, 2466, 2489, 2488
2058, 2466, 2467, 2490, 2489
2059, 2467, 2468, 2491, 2490
2060, 2468, 2469, 2492, 2491
2061, 2469, 2470, 2493, 2492
2062, 2470, 2471, 2494, 2493
2063, 2471, 2472, 2495, 2494
2064, 2472,  244,  245, 2495
2065,  335, 2473, 2496,  334
2066, 2473, 2474, 2497, 2496
2067, 2474, 2475, 2498, 2497
2068, 2475, 2476, 2499, 2498
2069, 2476, 2477, 2500, 2499
2070, 2477, 2478, 2501, 2500
2071, 2478, 2479, 2502, 2501
2072, 2479, 2480, 2503, 2502
2073, 2480, 2481, 2504, 2503
2074, 2481, 2482, 2505, 2504
2075, 2482, 2483, 2506, 2505
2076, 2483, 2484, 2507, 2506
2077, 2484, 2485, 2508, 2507
2078, 2485, 2486, 2509, 2508
2079, 2486, 2487, 2510, 2509
2080, 2487, 2488, 2511, 2510
2081, 2488, 2489, 2512, 2511
2082, 2489, 2490, 2513, 2512
2083, 2490, 2491, 2514, 2513
2084, 2491, 2492, 2515, 2514
2085, 2492, 2493, 2516, 2515
2086, 2493, 2494, 2517, 2516
2087, 2494, 2495, 2518, 2517
2088, 2495,  245,  246, 2518
2089,  334, 2496, 2519,  333
2090, 2496, 2497, 2520, 2519
2091, 2497, 2498, 2521, 2520
2092, 2498, 2499, 2522, 2521
2093, 2499, 2500, 2523, 2522
2094, 2500, 2501, 2524, 2523
2095, 2501, 2502, 2525, 2524
2096, 2502, 2503, 2526, 2525
2097, 2503, 2504, 2527, 2526
2098, 2504, 2505, 2528, 2527
2099, 2505, 2506, 2529, 2528
2100, 2506, 2507, 2530, 2529
2101, 2507, 2508, 2531, 2530
2102, 2508, 2509, 2532, 2531
2103, 2509, 2510, 2533, 2532
2104, 2510, 2511, 2534, 2533
2105, 2511, 2512, 2535, 2534
2106, 2512, 2513, 2536, 2535
2107, 2513, 2514, 2537, 2536
2108, 2514, 2515, 2538, 2537
2109, 2515, 2516, 2539, 2538
2110, 2516, 2517, 2540, 2539
2111, 2517, 2518, 2541, 2540
2112, 2518,  246,  247, 2541
2113,  333, 2519, 2542,  332
2114, 2519, 2520, 2543, 2542
2115, 2520, 2521, 2544, 2543
2116, 2521, 2522, 2545, 2544
2117, 2522, 2523, 2546, 2545
2118, 2523, 2524, 2547, 2546
2119, 2524, 2525, 2548, 2547
2120, 2525, 2526, 2549, 2548
2121, 2526, 2527, 2550, 2549
2122, 2527, 2528, 2551, 2550
2123, 2528, 2529, 2552, 2551
2124, 2529, 2530, 2553, 2552
2125, 2530, 2531, 2554, 2553
2126, 2531, 2532, 2555, 2554
2127, 2532, 2533, 2556, 2555
2128, 2533, 2534, 2557, 2556
2129, 2534, 2535, 2558, 2557
2130, 2535, 2536, 2559, 2558
2131, 2536, 2537, 2560, 2559
2132, 2537, 2538, 2561, 2560
2133, 2538, 2539, 2562, 2561
2134, 2539, 2540, 2563, 2562
2135, 2540, 2541, 2564, 2563
2136, 2541,  247,  248, 2564
2137,  332, 2542, 2565,  331
2138, 2542, 2543, 2566, 2565
2139, 2543, 2544, 2567, 2566
2140, 2544, 2545, 2568, 2567
2141, 2545, 2546, 2569, 2568
2142, 2546, 2547, 2570, 2569
2143, 2547, 2548, 2571, 2570
2144, 2548, 2549, 2572, 2571
2145, 2549, 2550, 2573, 2572
2146, 2550, 2551, 2574, 2573
2147, 2551, 2552, 2575, 2574
2148, 2552, 2553, 2576, 2575
2149, 2553, 2554, 2577, 2576
2150, 2554, 2555, 2578, 2577
2151, 2555, 2556, 2579, 2578
2152, 2556, 2557, 2580, 2579
2153, 2557, 2558, 2581, 2580
2154, 2558, 2559, 2582, 2581
2155, 2559, 2560, 2583, 2582
2156, 2560, 2561, 2584, 2583
2157, 2561, 2562, 2585, 2584
2158, 2562, 2563, 2586, 2585
2159, 2563, 2564, 2587, 2586
2160, 2564,  248,  249, 2587
2161,  331, 2565, 2588,  330
2162, 2565, 2566, 2589, 2588
2163, 2566, 2567, 2590, 2589
2164, 2567, 2568, 2591, 2590
2165, 2568, 2569, 2592, 2591
2166, 2569, 2570, 2593, 2592
2167, 2570, 2571, 2594, 2593
2168, 2571, 2572, 2595, 2594
2169, 2572, 2573, 2596, 2595
2170, 2573, 2574, 2597, 2596
2171, 2574, 2575, 2598, 2597
2172, 2575, 2576, 2599, 2598
2173, 2576, 2577, 2600, 2599
2174, 2577, 2578, 2601, 2600
2175, 2578, 2579, 2602, 2601
2176, 2579, 2580, 2603, 2602
2177, 2580, 2581, 2604, 2603
2178, 2581, 2582, 2605, 2604
2179, 2582, 2583, 2606, 2605
2180, 2583, 2584, 2607, 2606
2181, 2584, 2585, 2608, 2607
2182, 2585, 2586, 2609, 2608
2183, 2586, 2587, 2610, 2609
2184, 2587,  249,  250, 2610
2185,  330, 2588, 2611,  329
2186, 2588, 2589, 2612, 2611
2187, 2589, 2590, 2613, 2612
2188, 2590, 2591, 2614, 2613
2189, 2591, 2592, 2615, 2614
2190, 2592, 2593, 2616, 2615
2191, 2593, 2594, 2617, 2616
2192, 2594, 2595, 2618, 2617
2193, 2595, 2596, 2619, 2618
2194, 2596, 2597, 2620, 2619
2195, 2597, 2598, 2621, 2620
2196, 2598, 2599, 2622, 2621
2197, 2599, 2600, 2623, 2622
2198, 2600, 2601, 2624, 2623
2199, 2601, 2602, 2625, 2624
2200, 2602, 2603, 2626, 2625
2201, 2603, 2604, 2627, 2626
2202, 2604, 2605, 2628, 2627
2203, 2605, 2606, 2629, 2628
2204, 2606, 2607, 2630, 2629
2205, 2607, 2608, 2631, 2630
2206, 2608, 2609, 2632, 2631
2207, 2609, 2610, 2633, 2632
2208, 2610,  250,  251, 2633
2209,  329, 2611, 2634,  328
2210, 2611, 2612, 2635, 2634
2211, 2612, 2613, 2636, 2635
2212, 2613, 2614, 2637, 2636
2213, 2614, 2615, 2638, 2637
2214, 2615, 2616, 2639, 2638
2215, 2616, 2617, 2640, 2639
2216, 2617, 2618, 2641, 2640
2217, 2618, 2619, 2642, 2641
2218, 2619, 2620, 2643, 2642
2219, 2620, 2621, 2644, 2643
2220, 2621, 2622, 2645, 2644
2221, 2622, 2623, 2646, 2645
2222, 2623, 2624, 2647, 2646
2223, 2624, 2625, 2648, 2647
2224, 2625, 2626, 2649, 2648
2225, 2626, 2627, 2650, 2649
2226, 2627, 2628, 2651, 2650
2227, 2628, 2629, 2652, 2651
2228, 2629, 2630, 2653, 2652
2229, 2630, 2631, 2654, 2653
2230, 2631, 2632, 2655, 2654
2231, 2632, 2633, 2656, 2655
2232, 2633,  251,  252, 2656
2233,  328, 2634, 2657,  327
2234, 2634, 2635, 2658, 2657
2235, 2635, 2636, 2659, 2658
2236, 2636, 2637, 2660, 2659
2237, 2637, 2638, 2661, 2660
2238, 2638, 2639, 2662, 2661
2239, 2639, 2640, 2663, 2662
2240, 2640, 2641, 2664, 2663
2241, 2641, 2642, 2665, 2664
2242, 2642, 2643, 2666, 2665
2243, 2643, 2644, 2667, 2666
2244, 2644, 2645, 2668, 2667
2245, 2645, 2646, 2669, 2668
2246, 2646, 2647, 2670, 2669
2247, 2647, 2648, 2671, 2670
2248, 2648, 2649, 2672, 2671
2249, 2649, 2650, 2673, 2672
2250, 2650, 2651, 2674, 2673
2251, 2651, 2652, 2675, 2674
2252, 2652, 2653, 2676, 2675
2253, 2653, 2654, 2677, 2676
2254, 2654, 2655, 2678, 2677
2255, 2655, 2656, 2679, 2678
2256, 2656,  252,  253, 2679
2257,  327, 2657, 2680,  326
2258, 2657, 2658, 2681, 2680
2259, 2658, 2659, 2682, 2681
2260, 2659, 2660, 2683, 2682
2261, 2660, 2661, 2684, 2683
2262, 2661, 2662, 2685, 2684
2263, 2662, 2663, 2686, 2685
2264, 2663, 2664, 2687, 2686
2265, 2664, 2665, 2688, 2687
2266, 2665, 2666, 2689, 2688
2267, 2666, 2667, 2690, 2689
2268, 2667, 2668, 2691, 2690
2269, 2668, 2669, 2692, 2691
2270, 2669, 2670, 2693, 2692
2271, 2670, 2671, 2694, 2693
2272, 2671, 2672, 2695, 2694
2273, 2672, 2673, 2696, 2695
2274, 2673, 2674, 2697, 2696
2275, 2674, 2675, 2698, 2697
2276, 2675, 2676, 2699, 2698
2277, 2676, 2677, 2700, 2699
2278, 2677, 2678, 2701, 2700
2279, 2678, 2679, 2702, 2701
2280, 2679,  253,  254, 2702
2281,  326, 2680, 2703,  325
2282, 2680, 2681, 2704, 2703
2283, 2681, 2682, 2705, 2704
2284, 2682, 2683, 2706, 2705
2285, 2683, 2684, 2707, 2706
2286, 2684, 2685, 2708, 2707
2287, 2685, 2686, 2709, 2708
2288, 2686, 2687, 2710, 2709
2289, 2687, 2688, 2711, 2710
2290, 2688, 2689, 2712, 2711
2291, 2689, 2690, 2713, 2712
2292, 2690, 2691, 2714, 2713
2293, 2691, 2692, 2715, 2714
2294, 2692, 2693, 2716, 2715
2295, 2693, 2694, 2717, 2716
2296, 2694, 2695, 2718, 2717
2297, 2695, 2696, 2719, 2718
2298, 2696, 2697, 2720, 2719
2299, 2697, 2698, 2721, 2720
2300, 2698, 2699, 2722, 2721
2301, 2699, 2700, 2723, 2722
2302, 2700, 2701, 2724, 2723
2303, 2701, 2702, 2725, 2724
2304, 2702,  254,  255, 2725
2305,  325, 2703, 2726,  324
2306, 2703, 2704, 2727, 2726
2307, 2704, 2705, 2728, 2727
2308, 2705, 2706, 2729, 2728
2309, 2706, 2707, 2730, 2729
2310, 2707, 2708, 2731, 2730
2311, 2708, 2709, 2732, 2731
2312, 2709, 2710, 2733, 2732
2313, 2710, 2711, 2734, 2733
2314, 2711, 2712, 2735, 2734
2315, 2712, 2713, 2736, 2735
2316, 2713, 2714, 2737, 2736
2317, 2714, 2715, 2738, 2737
2318, 2715, 2716, 2739, 2738
2319, 2716, 2717, 2740, 2739
2320, 2717, 2718, 2741, 2740
2321, 2718, 2719, 2742, 2741
2322, 2719, 2720, 2743, 2742
2323, 2720, 2721, 2744, 2743
2324, 2721, 2722, 2745, 2744
2325, 2722, 2723, 2746, 2745
2326, 2723, 2724, 2747, 2746
2327, 2724, 2725, 2748, 2747
2328, 2725,  255,  256, 2748
2329,  324, 2726, 2749,  323
2330, 2726, 2727, 2750, 2749
2331, 2727, 2728, 2751, 2750
2332, 2728, 2729, 2752, 2751
2333, 2729, 2730, 2753, 2752
2334, 2730, 2731, 2754, 2753
2335, 2731, 2732, 2755, 2754
2336, 2732, 2733, 2756, 2755
2337, 2733, 2734, 2757, 2756
2338, 2734, 2735, 2758, 2757
2339, 2735, 2736, 2759, 2758
2340, 2736, 2737, 2760, 2759
2341, 2737, 2738, 2761, 2760
2342, 2738, 2739, 2762, 2761
2343, 2739, 2740, 2763, 2762
2344, 2740, 2741, 2764, 2763
2345, 2741, 2742, 2765, 2764
2346, 2742, 2743, 2766, 2765
2347, 2743, 2744, 2767, 2766
2348, 2744, 2745, 2768, 2767
2349, 2745, 2746, 2769, 2768
2350, 2746, 2747, 2770, 2769
2351, 2747, 2748, 2771, 2770
2352, 2748,  256,  257, 2771
2353,  323, 2749, 2772,  322
2354, 2749, 2750, 2773, 2772
2355, 2750, 2751, 2774, 2773
2356, 2751, 2752, 2775, 2774
2357, 2752, 2753, 2776, 2775
2358, 2753, 2754, 2777, 2776
2359, 2754, 2755, 2778, 2777
2360, 2755, 2756, 2779, 2778
2361, 2756, 2757, 2780, 2779
2362, 2757, 2758, 2781, 2780
2363, 2758, 2759, 2782, 2781
2364, 2759, 2760, 2783, 2782
2365, 2760, 2761, 2784, 2783
2366, 2761, 2762, 2785, 2784
2367, 2762, 2763, 2786, 2785
2368, 2763, 2764, 2787, 2786
2369, 2764, 2765, 2788, 2787
2370, 2765, 2766, 2789, 2788
2371, 2766, 2767, 2790, 2789
2372, 2767, 2768, 2791, 2790
2373, 2768, 2769, 2792, 2791
2374, 2769, 2770, 2793, 2792
2375, 2770, 2771, 2794, 2793
2376, 2771,  257,  258, 2794
2377,  322, 2772, 2795,  321
2378, 2772, 2773, 2796, 2795
2379, 2773, 2774, 2797, 2796
2380, 2774, 2775, 2798, 2797
2381, 2775, 2776, 2799, 2798
2382, 2776, 2777, 2800, 2799
2383, 2777, 2778, 2801, 2800
2384, 2778, 2779, 2802, 2801
2385, 2779, 2780, 2803, 2802
2386, 2780, 2781, 2804, 2803
2387, 2781, 2782, 2805, 2804
2388, 2782, 2783, 2806, 2805
2389, 2783, 2784, 2807, 2806
2390, 2784, 2785, 2808, 2807
2391, 2785, 2786, 2809, 2808
2392, 2786, 2787, 2810, 2809
2393, 2787, 2788, 2811, 2810
2394, 2788, 2789, 2812, 2811
2395, 2789, 2790, 2813, 2812
2396, 2790, 2791, 2814, 2813
2397, 2791, 2792, 2815, 2814
2398, 2792, 2793, 2816, 2815
2399, 2793, 2794, 2817, 2816
2400, 2794,  258,  259, 2817
2401,  321, 2795, 2818,  320
2402, 2795, 2796, 2819, 2818
2403, 2796, 2797, 2820, 2819
2404, 2797, 2798, 2821, 2820
2405, 2798, 2799, 2822, 2821
2406, 2799, 2800, 2823, 2822
2407, 2800, 2801, 2824, 2823
2408, 2801, 2802, 2825, 2824
2409, 2802, 2803, 2826, 2825
2410, 2803, 2804, 2827, 2826
2411, 2804, 2805, 2828, 2827
2412, 2805, 2806, 2829, 2828
2413, 2806, 2807, 2830, 2829
2414, 2807, 2808, 2831, 2830
2415, 2808, 2809, 2832, 2831
2416, 2809, 2810, 2833, 2832
2417, 2810, 2811, 2834, 2833
2418, 2811, 2812, 2835, 2834
2419, 2812, 2813, 2836, 2835
2420, 2813, 2814, 2837, 2836
2421, 2814, 2815, 2838, 2837
2422, 2815, 2816, 2839, 2838
2423, 2816, 2817, 2840, 2839
2424, 2817,  259,  260, 2840
2425,  320, 2818, 2841,  319
2426, 2818, 2819, 2842, 2841
2427, 2819, 2820, 2843, 2842
2428, 2820, 2821, 2844, 2843
2429, 2821, 2822, 2845, 2844
2430, 2822, 2823, 2846, 2845
2431, 2823, 2824, 2847, 2846
2432, 2824, 2825, 2848, 2847
2433, 2825, 2826, 2849, 2848
2434, 2826, 2827, 2850, 2849
2435, 2827, 2828, 2851, 2850
2436, 2828, 2829, 2852, 2851
2437, 2829, 2830, 2853, 2852
2438, 2830, 2831, 2854, 2853
2439, 2831, 2832, 2855, 2854
2440, 2832, 2833, 2856, 2855
2441, 2833, 2834, 2857, 2856
2442, 2834, 2835, 2858, 2857
2443, 2835, 2836, 2859, 2858
2444, 2836, 2837, 2860, 2859
2445, 2837, 2838, 2861, 2860
2446, 2838, 2839, 2862, 2861
2447, 2839, 2840, 2863, 2862
2448, 2840,  260,  261, 2863
2449,  319, 2841, 2864,  318
2450, 2841, 2842, 2865, 2864
2451, 2842, 2843, 2866, 2865
2452, 2843, 2844, 2867, 2866
2453, 2844, 2845, 2868, 2867
2454, 2845, 2846, 2869, 2868
2455, 2846, 2847, 2870, 2869
2456, 2847, 2848, 2871, 2870
2457, 2848, 2849, 2872, 2871
2458, 2849, 2850, 2873, 2872
2459, 2850, 2851, 2874, 2873
2460, 2851, 2852, 2875, 2874
2461, 2852, 2853, 2876, 2875
2462, 2853, 2854, 2877, 2876
2463, 2854, 2855, 2878, 2877
2464, 2855, 2856, 2879, 2878
2465, 2856, 2857, 2880, 2879
2466, 2857, 2858, 2881, 2880
2467, 2858, 2859, 2882, 2881
2468, 2859, 2860, 2883, 2882
2469, 2860, 2861, 2884, 2883
2470, 2861, 2862, 2885, 2884
2471, 2862, 2863, 2886, 2885
2472, 2863,  261,  262, 2886
2473,  318, 2864, 2887,  317
2474, 2864, 2865, 2888, 2887
2475, 2865, 2866, 2889, 2888
2476, 2866, 2867, 2890, 2889
2477, 2867, 2868, 2891, 2890
2478, 2868, 2869, 2892, 2891
2479, 2869, 2870, 2893, 2892
2480, 2870, 2871, 2894, 2893
2481, 2871, 2872, 2895, 2894
2482, 2872, 2873, 2896, 2895
2483, 2873, 2874, 2897, 2896
2484, 2874, 2875, 2898, 2897
2485, 2875, 2876, 2899, 2898
2486, 2876, 2877, 2900, 2899
2487, 2877, 2878, 2901, 2900
2488, 2878, 2879, 2902, 2901
2489, 2879, 2880, 2903, 2902
2490, 2880, 2881, 2904, 2903
2491, 2881, 2882, 2905, 2904
2492, 2882, 2883, 2906, 2905
2493, 2883, 2884, 2907, 2906
2494, 2884, 2885, 2908, 2907
2495, 2885, 2886, 2909, 2908
2496, 2886,  262,  263, 2909
2497,  317, 2887, 2910,  316
2498, 2887, 2888, 2911, 2910
2499, 2888, 2889, 2912, 2911
2500, 2889, 2890, 2913, 2912
2501, 2890, 2891, 2914, 2913
2502, 2891, 2892, 2915, 2914
2503, 2892, 2893, 2916, 2915
2504, 2893, 2894, 2917, 2916
2505, 2894, 2895, 2918, 2917
2506, 2895, 2896, 2919, 2918
2507, 2896, 2897, 2920, 2919
2508, 2897, 2898, 2921, 2920
2509, 2898, 2899, 2922, 2921
2510, 2899, 2900, 2923, 2922
2511, 2900, 2901, 2924, 2923
2512, 2901, 2902, 2925, 2924
2513, 2902, 2903, 2926, 2925
2514, 2903, 2904, 2927, 2926
2515, 2904, 2905, 2928, 2927
2516, 2905, 2906, 2929, 2928
2517, 2906, 2907, 2930, 2929
2518, 2907, 2908, 2931, 2930
2519, 2908, 2909, 2932, 2931
2520, 2909,  263,  264, 2932
2521,  316, 2910, 2933,  315
2522, 2910, 2911, 2934, 2933
2523, 2911, 2912, 2935, 2934
2524, 2912, 2913, 2936, 2935
2525, 2913, 2914, 2937, 2936
2526, 2914, 2915, 2938, 2937
2527, 2915, 2916, 2939, 2938
2528, 2916, 2917, 2940, 2939
2529, 2917, 2918, 2941, 2940
2530, 2918, 2919, 2942, 2941
2531, 2919, 2920, 2943, 2942
2532, 2920, 2921, 2944, 2943
2533, 2921, 2922, 2945, 2944
2534, 2922, 2923, 2946, 2945
2535, 2923, 2924, 2947, 2946
2536, 2924, 2925, 2948, 2947
2537, 2925, 2926, 2949, 2948
2538, 2926, 2927, 2950, 2949
2539, 2927, 2928, 2951, 2950
2540, 2928, 2929, 2952, 2951
2541, 2929, 2930, 2953, 2952
2542, 2930, 2931, 2954, 2953
2543, 2931, 2932, 2955, 2954
2544, 2932,  264,  265, 2955
2545,  315, 2933, 2956,  314
2546, 2933, 2934, 2957, 2956
2547, 2934, 2935, 2958, 2957
2548, 2935, 2936, 2959, 2958
2549, 2936, 2937, 2960, 2959
2550, 2937, 2938, 2961, 2960
2551, 2938, 2939, 2962, 2961
2552, 2939, 2940, 2963, 2962
2553, 2940, 2941, 2964, 2963
2554, 2941, 2942, 2965, 2964
2555, 2942, 2943, 2966, 2965
2556, 2943, 2944, 2967, 2966
2557, 2944, 2945, 2968, 2967
2558, 2945, 2946, 2969, 2968
2559, 2946, 2947, 2970, 2969
2560, 2947, 2948, 2971, 2970
2561, 2948, 2949, 2972, 2971
2562, 2949, 2950, 2973, 2972
2563, 2950, 2951, 2974, 2973
2564, 2951, 2952, 2975, 2974
2565, 2952, 2953, 2976, 2975
2566, 2953, 2954, 2977, 2976
2567, 2954, 2955, 2978, 2977
2568, 2955,  265,  266, 2978
2569,  314, 2956, 2979,  313
2570, 2956, 2957, 2980, 2979
2571, 2957, 2958, 2981, 2980
2572, 2958, 2959, 2982, 2981
2573, 2959, 2960, 2983, 2982
2574, 2960, 2961, 2984, 2983
2575, 2961, 2962, 2985, 2984
2576, 2962, 2963, 2986, 2985
2577, 2963, 2964, 2987, 2986
2578, 2964, 2965, 2988, 2987
2579, 2965, 2966, 2989, 2988
2580, 2966, 2967, 2990, 2989
2581, 2967, 2968, 2991, 2990
2582, 2968, 2969, 2992, 2991
2583, 2969, 2970, 2993, 2992
2584, 2970, 2971, 2994, 2993
2585, 2971, 2972, 2995, 2994
2586, 2972, 2973, 2996, 2995
2587, 2973, 2974, 2997, 2996
2588, 2974, 2975, 2998, 2997
2589, 2975, 2976, 2999, 2998
2590, 2976, 2977, 3000, 2999
2591, 2977, 2978, 3001, 3000
2592, 2978,  266,  267, 3001
2593,  313, 2979, 3002,  312
2594, 2979, 2980, 3003, 3002
2595, 2980, 2981, 3004, 3003
2596, 2981, 2982, 3005, 3004
2597, 2982, 2983, 3006, 3005
2598, 2983, 2984, 3007, 3006
2599, 2984, 2985, 3008, 3007
2600, 2985, 2986, 3009, 3008
2601, 2986, 2987, 3010, 3009
2602, 2987, 2988, 3011, 3010
2603, 2988, 2989, 3012, 3011
2604, 2989, 2990, 3013, 3012
2605, 2990, 2991, 3014, 3013
2606, 2991, 2992, 3015, 3014
2607, 2992, 2993, 3016, 3015
2608, 2993, 2994, 3017, 3016
2609, 2994, 2995, 3018, 3017
2610, 2995, 2996, 3019, 3018
2611, 2996, 2997, 3020, 3019
2612, 2997, 2998, 3021, 3020
2613, 2998, 2999, 3022, 3021
2614, 2999, 3000, 3023, 3022
2615, 3000, 3001, 3024, 3023
2616, 3001,  267,  268, 3024
2617,  312, 3002, 3025,  311
2618, 3002, 3003, 3026, 3025
2619, 3003, 3004, 3027, 3026
2620, 3004, 3005, 3028, 3027
2621, 3005, 3006, 3029, 3028
2622, 3006, 3007, 3030, 3029
2623, 3007, 3008, 3031, 3030
2624, 3008, 3009, 3032, 3031
2625, 3009, 3010, 3033, 3032
2626, 3010, 3011, 3034, 3033
2627, 3011, 3012, 3035, 3034
2628, 3012, 3013, 3036, 3035
2629, 3013, 3014, 3037, 3036
2630, 3014, 3015, 3038, 3037
2631, 3015, 3016, 3039, 3038
2632, 3016, 3017, 3040, 3039
2633, 3017, 3018, 3041, 3040
2634, 3018, 3019, 3042, 3041
2635, 3019, 3020, 3043, 3042
2636, 3020, 3021, 3044, 3043
2637, 3021, 3022, 3045, 3044
2638, 3022, 3023, 3046, 3045
2639, 3023, 3024, 3047, 3046
2640, 3024,  268,  269, 3047
2641,  311, 3025, 3048,  310
2642, 3025, 3026, 3049, 3048
2643, 3026, 3027, 3050, 3049
2644, 3027, 3028, 3051, 3050
2645, 3028, 3029, 3052, 3051
2646, 3029, 3030, 3053, 3052
2647, 3030, 3031, 3054, 3053
2648, 3031, 3032, 3055, 3054
2649, 3032, 3033, 3056, 3055
2650, 3033, 3034, 3057, 3056
2651, 3034, 3035, 3058, 3057
2652, 3035, 3036, 3059, 3058
2653, 3036, 3037, 3060, 3059
2654, 3037, 3038, 3061, 3060
2655, 3038, 3039, 3062, 3061
2656, 3039, 3040, 3063, 3062
2657, 3040, 3041, 3064, 3063
2658, 3041, 3042, 3065, 3064
2659, 3042, 3043, 3066, 3065
2660, 3043, 3044, 3067, 3066
2661, 3044, 3045, 3068, 3067
2662, 3045, 3046, 3069, 3068
2663, 3046, 3047, 3070, 3069
2664, 3047,  269,  270, 3070
2665,  310, 3048, 3071,  309
2666, 3048, 3049, 3072, 3071
2667, 3049, 3050, 3073, 3072
2668, 3050, 3051, 3074, 3073
2669, 3051, 3052, 3075, 3074
2670, 3052, 3053, 3076, 3075
2671, 3053, 3054, 3077, 3076
2672, 3054, 3055, 3078, 3077
2673, 3055, 3056, 3079, 3078
2674, 3056, 3057, 3080, 3079
2675, 3057, 3058, 3081, 3080
2676, 3058, 3059, 3082, 3081
2677, 3059, 3060, 3083, 3082
2678, 3060, 3061, 3084, 3083
2679, 3061, 3062, 3085, 3084
2680, 3062, 3063, 3086, 3085
2681, 3063, 3064, 3087, 3086
2682, 3064, 3065, 3088, 3087
2683, 3065, 3066, 3089, 3088
2684, 3066, 3067, 3090, 3089
2685, 3067, 3068, 3091, 3090
2686, 3068, 3069, 3092, 3091
2687, 3069, 3070, 3093, 3092
2688, 3070,  270,  271, 3093
2689,  309, 3071, 3094,  308
2690, 3071, 3072, 3095, 3094
2691, 3072, 3073, 3096, 3095
2692, 3073, 3074, 3097, 3096
2693, 3074, 3075, 3098, 3097
2694, 3075, 3076, 3099, 3098
2695, 3076, 3077, 3100, 3099
2696, 3077, 3078, 3101, 3100
2697, 3078, 3079, 3102, 3101
2698, 3079, 3080, 3103, 3102
2699, 3080, 3081, 3104, 3103
2700, 3081, 3082, 3105, 3104
2701, 3082, 3083, 3106, 3105
2702, 3083, 3084, 3107, 3106
2703, 3084, 3085, 3108, 3107
2704, 3085, 3086, 3109, 3108
2705, 3086, 3087, 3110, 3109
2706, 3087, 3088, 3111, 3110
2707, 3088, 3089, 3112, 3111
2708, 3089, 3090, 3113, 3112
2709, 3090, 3091, 3114, 3113
2710, 3091, 3092, 3115, 3114
2711, 3092, 3093, 3116, 3115
2712, 3093,  271,  272, 3116
2713,  308, 3094, 3117,  307
2714, 3094, 3095, 3118, 3117
2715, 3095, 3096, 3119, 3118
2716, 3096, 3097, 3120, 3119
2717, 3097, 3098, 3121, 3120
2718, 3098, 3099, 3122, 3121
2719, 3099, 3100, 3123, 3122
2720, 3100, 3101, 3124, 3123
2721, 3101, 3102, 3125, 3124
2722, 3102, 3103, 3126, 3125
2723, 3103, 3104, 3127, 3126
2724, 3104, 3105, 3128, 3127
2725, 3105, 3106, 3129, 3128
2726, 3106, 3107, 3130, 3129
2727, 3107, 3108, 3131, 3130
2728, 3108, 3109, 3132, 3131
2729, 3109, 3110, 3133, 3132
2730, 3110, 3111, 3134, 3133
2731, 3111, 3112, 3135, 3134
2732, 3112, 3113, 3136, 3135
2733, 3113, 3114, 3137, 3136
2734, 3114, 3115, 3138, 3137
2735, 3115, 3116, 3139, 3138
2736, 3116,  272,  273, 3139
2737,  307, 3117, 3140,  306
2738, 3117, 3118, 3141, 3140
2739, 3118, 3119, 3142, 3141
2740, 3119, 3120, 3143, 3142
2741, 3120, 3121, 3144, 3143
2742, 3121, 3122, 3145, 3144
2743, 3122, 3123, 3146, 3145
2744, 3123, 3124, 3147, 3146
2745, 3124, 3125, 3148, 3147
2746, 3125, 3126, 3149, 3148
2747, 3126, 3127, 3150, 3149
2748, 3127, 3128, 3151, 3150
2749, 3128, 3129, 3152, 3151
2750, 3129, 3130, 3153, 3152
2751, 3130, 3131, 3154, 3153
2752, 3131, 3132, 3155, 3154
2753, 3132, 3133, 3156, 3155
2754, 3133, 3134, 3157, 3156
2755, 3134, 3135, 3158, 3157
2756, 3135, 3136, 3159, 3158
2757, 3136, 3137, 3160, 3159
2758, 3137, 3138, 3161, 3160
2759, 3138, 3139, 3162, 3161
2760, 3139,  273,  274, 3162
2761,  306, 3140, 3163,  305
2762, 3140, 3141, 3164, 3163
2763, 3141, 3142, 3165, 3164
2764, 3142, 3143, 3166, 3165
2765, 3143, 3144, 3167, 3166
2766, 3144, 3145, 3168, 3167
2767, 3145, 3146, 3169, 3168
2768, 3146, 3147, 3170, 3169
2769, 3147, 3148, 3171, 3170
2770, 3148, 3149, 3172, 3171
2771, 3149, 3150, 3173, 3172
2772, 3150, 3151, 3174, 3173
2773, 3151, 3152, 3175, 3174
2774, 3152, 3153, 3176, 3175
2775, 3153, 3154, 3177, 3176
2776, 3154, 3155, 3178, 3177
2777, 3155, 3156, 3179, 3178
2778, 3156, 3157, 3180, 3179
2779, 3157, 3158, 3181, 3180
2780, 3158, 3159, 3182, 3181
2781, 3159, 3160, 3183, 3182
2782, 3160, 3161, 3184, 3183
2783, 3161, 3162, 3185, 3184
2784, 3162,  274,  275, 3185
2785,  305, 3163, 3186,  304
2786, 3163, 3164, 3187, 3186
2787, 3164, 3165, 3188, 3187
2788, 3165, 3166, 3189, 3188
2789, 3166, 3167, 3190, 3189
2790, 3167, 3168, 3191, 3190
2791, 3168, 3169, 3192, 3191
2792, 3169, 3170, 3193, 3192
2793, 3170, 3171, 3194, 3193
2794, 3171, 3172, 3195, 3194
2795, 3172, 3173, 3196, 3195
2796, 3173, 3174, 3197, 3196
2797, 3174, 3175, 3198, 3197
2798, 3175, 3176, 3199, 3198
2799, 3176, 3177, 3200, 3199
2800, 3177, 3178, 3201, 3200
2801, 3178, 3179, 3202, 3201
2802, 3179, 3180, 3203, 3202
2803, 3180, 3181, 3204, 3203
2804, 3181, 3182, 3205, 3204
2805, 3182, 3183, 3206, 3205
2806, 3183, 3184, 3207, 3206
2807, 3184, 3185, 3208, 3207
2808, 3185,  275,  276, 3208
2809,  304, 3186, 3209,  303
2810, 3186, 3187, 3210, 3209
2811, 3187, 3188, 3211, 3210
2812, 3188, 3189, 3212, 3211
2813, 3189, 3190, 3213, 3212
2814, 3190, 3191, 3214, 3213
2815, 3191, 3192, 3215, 3214
2816, 3192, 3193, 3216, 3215
2817, 3193, 3194, 3217, 3216
2818, 3194, 3195, 3218, 3217
2819, 3195, 3196, 3219, 3218
2820, 3196, 3197, 3220, 3219
2821, 3197, 3198, 3221, 3220
2822, 3198, 3199, 3222, 3221
2823, 3199, 3200, 3223, 3222
2824, 3200, 3201, 3224, 3223
2825, 3201, 3202, 3225, 3224
2826, 3202, 3203, 3226, 3225
2827, 3203, 3204, 3227, 3226
2828, 3204, 3205, 3228, 3227
2829, 3205, 3206, 3229, 3228
2830, 3206, 3207, 3230, 3229
2831, 3207, 3208, 3231, 3230
2832, 3208,  276,  277, 3231
2833,  303, 3209, 3232,  302
2834, 3209, 3210, 3233, 3232
2835, 3210, 3211, 3234, 3233
2836, 3211, 3212, 3235, 3234
2837, 3212, 3213, 3236, 3235
2838, 3213, 3214, 3237, 3236
2839, 3214, 3215, 3238, 3237
2840, 3215, 3216, 3239, 3238
2841, 3216, 3217, 3240, 3239
2842, 3217, 3218, 3241, 3240
2843, 3218, 3219, 3242, 3241
2844, 3219, 3220, 3243, 3242
2845, 3220, 3221, 3244, 3243
2846, 3221, 3222, 3245, 3244
2847, 3222, 3223, 3246, 3245
2848, 3223, 3224, 3247, 3246
2849, 3224, 3225, 3248, 3247
2850, 3225, 3226, 3249, 3248
2851, 3226, 3227, 3250, 3249
2852, 3227, 3228, 3251, 3250
2853, 3228, 3229, 3252, 3251
2854, 3229, 3230, 3253, 3252
2855, 3230, 3231, 3254, 3253
2856, 3231,  277,  278, 3254
2857,  302, 3232,  301,    8
2858, 3232, 3233,  300,  301
2859, 3233, 3234,  299,  300
2860, 3234, 3235,  298,  299
2861, 3235, 3236,  297,  298
2862, 3236, 3237,  296,  297
2863, 3237, 3238,  295,  296
2864, 3238, 3239,  294,  295
2865, 3239, 3240,  293,  294
2866, 3240, 3241,  292,  293
2867, 3241, 3242,  291,  292
2868, 3242, 3243,  290,  291
2869, 3243, 3244,  289,  290
2870, 3244, 3245,  288,  289
2871, 3245, 3246,  287,  288
2872, 3246, 3247,  286,  287
2873, 3247, 3248,  285,  286
2874, 3248, 3249,  284,  285
2875, 3249, 3250,  283,  284
2876, 3250, 3251,  282,  283
2877, 3251, 3252,  281,  282
2878, 3252, 3253,  280,  281
2879, 3253, 3254,  279,  280
2880, 3254,  278,    7,  279
2881,    8,  301, 3255,  441
2882,  301,  300, 3256, 3255
2883,  300,  299, 3257, 3256
2884,  299,  298, 3258, 3257
2885,  298,  297, 3259, 3258
2886,  297,  296, 3260, 3259
2887,  296,  295, 3261, 3260
2888,  295,  294, 3262, 3261
2889,  294,  293, 3263, 3262
2890,  293,  292, 3264, 3263
2891,  292,  291, 3265, 3264
2892,  291,  290, 3266, 3265
2893,  290,  289, 3267, 3266
2894,  289,  288, 3268, 3267
2895,  288,  287, 3269, 3268
2896,  287,  286, 3270, 3269
2897,  286,  285, 3271, 3270
2898,  285,  284, 3272, 3271
2899,  284,  283, 3273, 3272
2900,  283,  282, 3274, 3273
2901,  282,  281, 3275, 3274
2902,  281,  280, 3276, 3275
2903,  280,  279, 3277, 3276
2904,  279,    7,  341, 3277
2905,  441, 3255, 3278,  440
2906, 3255, 3256, 3279, 3278
2907, 3256, 3257, 3280, 3279
2908, 3257, 3258, 3281, 3280
2909, 3258, 3259, 3282, 3281
2910, 3259, 3260, 3283, 3282
2911, 3260, 3261, 3284, 3283
2912, 3261, 3262, 3285, 3284
2913, 3262, 3263, 3286, 3285
2914, 3263, 3264, 3287, 3286
2915, 3264, 3265, 3288, 3287
2916, 3265, 3266, 3289, 3288
2917, 3266, 3267, 3290, 3289
2918, 3267, 3268, 3291, 3290
2919, 3268, 3269, 3292, 3291
2920, 3269, 3270, 3293, 3292
2921, 3270, 3271, 3294, 3293
2922, 3271, 3272, 3295, 3294
2923, 3272, 3273, 3296, 3295
2924, 3273, 3274, 3297, 3296
2925, 3274, 3275, 3298, 3297
2926, 3275, 3276, 3299, 3298
2927, 3276, 3277, 3300, 3299
2928, 3277,  341,  342, 3300
2929,  440, 3278, 3301,  439
2930, 3278, 3279, 3302, 3301
2931, 3279, 3280, 3303, 3302
2932, 3280, 3281, 3304, 3303
2933, 3281, 3282, 3305, 3304
2934, 3282, 3283, 3306, 3305
2935, 3283, 3284, 3307, 3306
2936, 3284, 3285, 3308, 3307
2937, 3285, 3286, 3309, 3308
2938, 3286, 3287, 3310, 3309
2939, 3287, 3288, 3311, 3310
2940, 3288, 3289, 3312, 3311
2941, 3289, 3290, 3313, 3312
2942, 3290, 3291, 3314, 3313
2943, 3291, 3292, 3315, 3314
2944, 3292, 3293, 3316, 3315
2945, 3293, 3294, 3317, 3316
2946, 3294, 3295, 3318, 3317
2947, 3295, 3296, 3319, 3318
2948, 3296, 3297, 3320, 3319
2949, 3297, 3298, 3321, 3320
2950, 3298, 3299, 3322, 3321
2951, 3299, 3300, 3323, 3322
2952, 3300,  342,  343, 3323
2953,  439, 3301, 3324,  438
2954, 3301, 3302, 3325, 3324
2955, 3302, 3303, 3326, 3325
2956, 3303, 3304, 3327, 3326
2957, 3304, 3305, 3328, 3327
2958, 3305, 3306, 3329, 3328
2959, 3306, 3307, 3330, 3329
2960, 3307, 3308, 3331, 3330
2961, 3308, 3309, 3332, 3331
2962, 3309, 3310, 3333, 3332
2963, 3310, 3311, 3334, 3333
2964, 3311, 3312, 3335, 3334
2965, 3312, 3313, 3336, 3335
2966, 3313, 3314, 3337, 3336
2967, 3314, 3315, 3338, 3337
2968, 3315, 3316, 3339, 3338
2969, 3316, 3317, 3340, 3339
2970, 3317, 3318, 3341, 3340
2971, 3318, 3319, 3342, 3341
2972, 3319, 3320, 3343, 3342
2973, 3320, 3321, 3344, 3343
2974, 3321, 3322, 3345, 3344
2975, 3322, 3323, 3346, 3345
2976, 3323,  343,  344, 3346
2977,  438, 3324, 3347,  437
2978, 3324, 3325, 3348, 3347
2979, 3325, 3326, 3349, 3348
2980, 3326, 3327, 3350, 3349
2981, 3327, 3328, 3351, 3350
2982, 3328, 3329, 3352, 3351
2983, 3329, 3330, 3353, 3352
2984, 3330, 3331, 3354, 3353
2985, 3331, 3332, 3355, 3354
2986, 3332, 3333, 3356, 3355
2987, 3333, 3334, 3357, 3356
2988, 3334, 3335, 3358, 3357
2989, 3335, 3336, 3359, 3358
2990, 3336, 3337, 3360, 3359
2991, 3337, 3338, 3361, 3360
2992, 3338, 3339, 3362, 3361
2993, 3339, 3340, 3363, 3362
2994, 3340, 3341, 3364, 3363
2995, 3341, 3342, 3365, 3364
2996, 3342, 3343, 3366, 3365
2997, 3343, 3344, 3367, 3366
2998, 3344, 3345, 3368, 3367
2999, 3345, 3346, 3369, 3368
3000, 3346,  344,  345, 3369
3001,  437, 3347, 3370,  436
3002, 3347, 3348, 3371, 3370
3003, 3348, 3349, 3372, 3371
3004, 3349, 3350, 3373, 3372
3005, 3350, 3351, 3374, 3373
3006, 3351, 3352, 3375, 3374
3007, 3352, 3353, 3376, 3375
3008, 3353, 3354, 3377, 3376
3009, 3354, 3355, 3378, 3377
3010, 3355, 3356, 3379, 3378
3011, 3356, 3357, 3380, 3379
3012, 3357, 3358, 3381, 3380
3013, 3358, 3359, 3382, 3381
3014, 3359, 3360, 3383, 3382
3015, 3360, 3361, 3384, 3383
3016, 3361, 3362, 3385, 3384
3017, 3362, 3363, 3386, 3385
3018, 3363, 3364, 3387, 3386
3019, 3364, 3365, 3388, 3387
3020, 3365, 3366, 3389, 3388
3021, 3366, 3367, 3390, 3389
3022, 3367, 3368, 3391, 3390
3023, 3368, 3369, 3392, 3391
3024, 3369,  345,  346, 3392
3025,  436, 3370, 3393,  435
3026, 3370, 3371, 3394, 3393
3027, 3371, 3372, 3395, 3394
3028, 3372, 3373, 3396, 3395
3029, 3373, 3374, 3397, 3396
3030, 3374, 3375, 3398, 3397
3031, 3375, 3376, 3399, 3398
3032, 3376, 3377, 3400, 3399
3033, 3377, 3378, 3401, 3400
3034, 3378, 3379, 3402, 3401
3035, 3379, 3380, 3403, 3402
3036, 3380, 3381, 3404, 3403
3037, 3381, 3382, 3405, 3404
3038, 3382, 3383, 3406, 3405
3039, 3383, 3384, 3407, 3406
3040, 3384, 3385, 3408, 3407
3041, 3385, 3386, 3409, 3408
3042, 3386, 3387, 3410, 3409
3043, 3387, 3388, 3411, 3410
3044, 3388, 3389, 3412, 3411
3045, 3389, 3390, 3413, 3412
3046, 3390, 3391, 3414, 3413
3047, 3391, 3392, 3415, 3414
3048, 3392,  346,  347, 3415
3049,  435, 3393, 3416,  434
3050, 3393, 3394, 3417, 3416
3051, 3394, 3395, 3418, 3417
3052, 3395, 3396, 3419, 3418
3053, 3396, 3397, 3420, 3419
3054, 3397, 3398, 3421, 3420
3055, 3398, 3399, 3422, 3421
3056, 3399, 3400, 3423, 3422
3057, 3400, 3401, 3424, 3423
3058, 3401, 3402, 3425, 3424
3059, 3402, 3403, 3426, 3425
3060, 3403, 3404, 3427, 3426
3061, 3404, 3405, 3428, 3427
3062, 3405, 3406, 3429, 3428
3063, 3406, 3407, 3430, 3429
3064, 3407, 3408, 3431, 3430
3065, 3408, 3409, 3432, 3431
3066, 3409, 3410, 3433, 3432
3067, 3410, 3411, 3434, 3433
3068, 3411, 3412, 3435, 3434
3069, 3412, 3413, 3436, 3435
3070, 3413, 3414, 3437, 3436
3071, 3414, 3415, 3438, 3437
3072, 3415,  347,  348, 3438
3073,  434, 3416, 3439,  433
3074, 3416, 3417, 3440, 3439
3075, 3417, 3418, 3441, 3440
3076, 3418, 3419, 3442, 3441
3077, 3419, 3420, 3443, 3442
3078, 3420, 3421, 3444, 3443
3079, 3421, 3422, 3445, 3444
3080, 3422, 3423, 3446, 3445
3081, 3423, 3424, 3447, 3446
3082, 3424, 3425, 3448, 3447
3083, 3425, 3426, 3449, 3448
3084, 3426, 3427, 3450, 3449
3085, 3427, 3428, 3451, 3450
3086, 3428, 3429, 3452, 3451
3087, 3429, 3430, 3453, 3452
3088, 3430, 3431, 3454, 3453
3089, 3431, 3432, 3455, 3454
3090, 3432, 3433, 3456, 3455
3091, 3433, 3434, 3457, 3456
3092, 3434, 3435, 3458, 3457
3093, 3435, 3436, 3459, 3458
3094, 3436, 3437, 3460, 3459
3095, 3437, 3438, 3461, 3460
3096, 3438,  348,  349, 3461
3097,  433, 3439, 3462,  432
3098, 3439, 3440, 3463, 3462
3099, 3440, 3441, 3464, 3463
3100, 3441, 3442, 3465, 3464
3101, 3442, 3443, 3466, 3465
3102, 3443, 3444, 3467, 3466
3103, 3444, 3445, 3468, 3467
3104, 3445, 3446, 3469, 3468
3105, 3446, 3447, 3470, 3469
3106, 3447, 3448, 3471, 3470
3107, 3448, 3449, 3472, 3471
3108, 3449, 3450, 3473, 3472
3109, 3450, 3451, 3474, 3473
3110, 3451, 3452, 3475, 3474
3111, 3452, 3453, 3476, 3475
3112, 3453, 3454, 3477, 3476
3113, 3454, 3455, 3478, 3477
3114, 3455, 3456, 3479, 3478
3115, 3456, 3457, 3480, 3479
3116, 3457, 3458, 3481, 3480
3117, 3458, 3459, 3482, 3481
3118, 3459, 3460, 3483, 3482
3119, 3460, 3461, 3484, 3483
3120, 3461,  349,  350, 3484
3121,  432, 3462, 3485,  431
3122, 3462, 3463, 3486, 3485
3123, 3463, 3464, 3487, 3486
3124, 3464, 3465, 3488, 3487
3125, 3465, 3466, 3489, 3488
3126, 3466, 3467, 3490, 3489
3127, 3467, 3468, 3491, 3490
3128, 3468, 3469, 3492, 3491
3129, 3469, 3470, 3493, 3492
3130, 3470, 3471, 3494, 3493
3131, 3471, 3472, 3495, 3494
3132, 3472, 3473, 3496, 3495
3133, 3473, 3474, 3497, 3496
3134, 3474, 3475, 3498, 3497
3135, 3475, 3476, 3499, 3498
3136, 3476, 3477, 3500, 3499
3137, 3477, 3478, 3501, 3500
3138, 3478, 3479, 3502, 3501
3139, 3479, 3480, 3503, 3502
3140, 3480, 3481, 3504, 3503
3141, 3481, 3482, 3505, 3504
3142, 3482, 3483, 3506, 3505
3143, 3483, 3484, 3507, 3506
3144, 3484,  350,  351, 3507
3145,  431, 3485, 3508,  430
3146, 3485, 3486, 3509, 3508
3147, 3486, 3487, 3510, 3509
3148, 3487, 3488, 3511, 3510
3149, 3488, 3489, 3512, 3511
3150, 3489, 3490, 3513, 3512
3151, 3490, 3491, 3514, 3513
3152, 3491, 3492, 3515, 3514
3153, 3492, 3493, 3516, 3515
3154, 3493, 3494, 3517, 3516
3155, 3494, 3495, 3518, 3517
3156, 3495, 3496, 3519, 3518
3157, 3496, 3497, 3520, 3519
3158, 3497, 3498, 3521, 3520
3159, 3498, 3499, 3522, 3521
3160, 3499, 3500, 3523, 3522
3161, 3500, 3501, 3524, 3523
3162, 3501, 3502, 3525, 3524
3163, 3502, 3503, 3526, 3525
3164, 3503, 3504, 3527, 3526
3165, 3504, 3505, 3528, 3527
3166, 3505, 3506, 3529, 3528
3167, 3506, 3507, 3530, 3529
3168, 3507,  351,  352, 3530
3169,  430, 3508, 3531,  429
3170, 3508, 3509, 3532, 3531
3171, 3509, 3510, 3533, 3532
3172, 3510, 3511, 3534, 3533
3173, 3511, 3512, 3535, 3534
3174, 3512, 3513, 3536, 3535
3175, 3513, 3514, 3537, 3536
3176, 3514, 3515, 3538, 3537
3177, 3515, 3516, 3539, 3538
3178, 3516, 3517, 3540, 3539
3179, 3517, 3518, 3541, 3540
3180, 3518, 3519, 3542, 3541
3181, 3519, 3520, 3543, 3542
3182, 3520, 3521, 3544, 3543
3183, 3521, 3522, 3545, 3544
3184, 3522, 3523, 3546, 3545
3185, 3523, 3524, 3547, 3546
3186, 3524, 3525, 3548, 3547
3187, 3525, 3526, 3549, 3548
3188, 3526, 3527, 3550, 3549
3189, 3527, 3528, 3551, 3550
3190, 3528, 3529, 3552, 3551
3191, 3529, 3530, 3553, 3552
3192, 3530,  352,  353, 3553
3193,  429, 3531, 3554,  428
3194, 3531, 3532, 3555, 3554
3195, 3532, 3533, 3556, 3555
3196, 3533, 3534, 3557, 3556
3197, 3534, 3535, 3558, 3557
3198, 3535, 3536, 3559, 3558
3199, 3536, 3537, 3560, 3559
3200, 3537, 3538, 3561, 3560
3201, 3538, 3539, 3562, 3561
3202, 3539, 3540, 3563, 3562
3203, 3540, 3541, 3564, 3563
3204, 3541, 3542, 3565, 3564
3205, 3542, 3543, 3566, 3565
3206, 3543, 3544, 3567, 3566
3207, 3544, 3545, 3568, 3567
3208, 3545, 3546, 3569, 3568
3209, 3546, 3547, 3570, 3569
3210, 3547, 3548, 3571, 3570
3211, 3548, 3549, 3572, 3571
3212, 3549, 3550, 3573, 3572
3213, 3550, 3551, 3574, 3573
3214, 3551, 3552, 3575, 3574
3215, 3552, 3553, 3576, 3575
3216, 3553,  353,  354, 3576
3217,  428, 3554, 3577,  427
3218, 3554, 3555, 3578, 3577
3219, 3555, 3556, 3579, 3578
3220, 3556, 3557, 3580, 3579
3221, 3557, 3558, 3581, 3580
3222, 3558, 3559, 3582, 3581
3223, 3559, 3560, 3583, 3582
3224, 3560, 3561, 3584, 3583
3225, 3561, 3562, 3585, 3584
3226, 3562, 3563, 3586, 3585
3227, 3563, 3564, 3587, 3586
3228, 3564, 3565, 3588, 3587
3229, 3565, 3566, 3589, 3588
3230, 3566, 3567, 3590, 3589
3231, 3567, 3568, 3591, 3590
3232, 3568, 3569, 3592, 3591
3233, 3569, 3570, 3593, 3592
3234, 3570, 3571, 3594, 3593
3235, 3571, 3572, 3595, 3594
3236, 3572, 3573, 3596, 3595
3237, 3573, 3574, 3597, 3596
3238, 3574, 3575, 3598, 3597
3239, 3575, 3576, 3599, 3598
3240, 3576,  354,  355, 3599
3241,  427, 3577, 3600,  426
3242, 3577, 3578, 3601, 3600
3243, 3578, 3579, 3602, 3601
3244, 3579, 3580, 3603, 3602
3245, 3580, 3581, 3604, 3603
3246, 3581, 3582, 3605, 3604
3247, 3582, 3583, 3606, 3605
3248, 3583, 3584, 3607, 3606
3249, 3584, 3585, 3608, 3607
3250, 3585, 3586, 3609, 3608
3251, 3586, 3587, 3610, 3609
3252, 3587, 3588, 3611, 3610
3253, 3588, 3589, 3612, 3611
3254, 3589, 3590, 3613, 3612
3255, 3590, 3591, 3614, 3613
3256, 3591, 3592, 3615, 3614
3257, 3592, 3593, 3616, 3615
3258, 3593, 3594, 3617, 3616
3259, 3594, 3595, 3618, 3617
3260, 3595, 3596, 3619, 3618
3261, 3596, 3597, 3620, 3619
3262, 3597, 3598, 3621, 3620
3263, 3598, 3599, 3622, 3621
3264, 3599,  355,  356, 3622
3265,  426, 3600, 3623,  425
3266, 3600, 3601, 3624, 3623
3267, 3601, 3602, 3625, 3624
3268, 3602, 3603, 3626, 3625
3269, 3603, 3604, 3627, 3626
3270, 3604, 3605, 3628, 3627
3271, 3605, 3606, 3629, 3628
3272, 3606, 3607, 3630, 3629
3273, 3607, 3608, 3631, 3630
3274, 3608, 3609, 3632, 3631
3275, 3609, 3610, 3633, 3632
3276, 3610, 3611, 3634, 3633
3277, 3611, 3612, 3635, 3634
3278, 3612, 3613, 3636, 3635
3279, 3613, 3614, 3637, 3636
3280, 3614, 3615, 3638, 3637
3281, 3615, 3616, 3639, 3638
3282, 3616, 3617, 3640, 3639
3283, 3617, 3618, 3641, 3640
3284, 3618, 3619, 3642, 3641
3285, 3619, 3620, 3643, 3642
3286, 3620, 3621, 3644, 3643
3287, 3621, 3622, 3645, 3644
3288, 3622,  356,  357, 3645
3289,  425, 3623, 3646,  424
3290, 3623, 3624, 3647, 3646
3291, 3624, 3625, 3648, 3647
3292, 3625, 3626, 3649, 3648
3293, 3626, 3627, 3650, 3649
3294, 3627, 3628, 3651, 3650
3295, 3628, 3629, 3652, 3651
3296, 3629, 3630, 3653, 3652
3297, 3630, 3631, 3654, 3653
3298, 3631, 3632, 3655, 3654
3299, 3632, 3633, 3656, 3655
3300, 3633, 3634, 3657, 3656
3301, 3634, 3635, 3658, 3657
3302, 3635, 3636, 3659, 3658
3303, 3636, 3637, 3660, 3659
3304, 3637, 3638, 3661, 3660
3305, 3638, 3639, 3662, 3661
3306, 3639, 3640, 3663, 3662
3307, 3640, 3641, 3664, 3663
3308, 3641, 3642, 3665, 3664
3309, 3642, 3643, 3666, 3665
3310, 3643, 3644, 3667, 3666
3311, 3644, 3645, 3668, 3667
3312, 3645,  357,  358, 3668
3313,  424, 3646, 3669,  423
3314, 3646, 3647, 3670, 3669
3315, 3647, 3648, 3671, 3670
3316, 3648, 3649, 3672, 3671
3317, 3649, 3650, 3673, 3672
3318, 3650, 3651, 3674, 3673
3319, 3651, 3652, 3675, 3674
3320, 3652, 3653, 3676, 3675
3321, 3653, 3654, 3677, 3676
3322, 3654, 3655, 3678, 3677
3323, 3655, 3656, 3679, 3678
3324, 3656, 3657, 3680, 3679
3325, 3657, 3658, 3681, 3680
3326, 3658, 3659, 3682, 3681
3327, 3659, 3660, 3683, 3682
3328, 3660, 3661, 3684, 3683
3329, 3661, 3662, 3685, 3684
3330, 3662, 3663, 3686, 3685
3331, 3663, 3664, 3687, 3686
3332, 3664, 3665, 3688, 3687
3333, 3665, 3666, 3689, 3688
3334, 3666, 3667, 3690, 3689
3335, 3667, 3668, 3691, 3690
3336, 3668,  358,  359, 3691
3337,  423, 3669, 3692,  422
3338, 3669, 3670, 3693, 3692
3339, 3670, 3671, 3694, 3693
3340, 3671, 3672, 3695, 3694
3341, 3672, 3673, 3696, 3695
3342, 3673, 3674, 3697, 3696
3343, 3674, 3675, 3698, 3697
3344, 3675, 3676, 3699, 3698
3345, 3676, 3677, 3700, 3699
3346, 3677, 3678, 3701, 3700
3347, 3678, 3679, 3702, 3701
3348, 3679, 3680, 3703, 3702
3349, 3680, 3681, 3704, 3703
3350, 3681, 3682, 3705, 3704
3351, 3682, 3683, 3706, 3705
3352, 3683, 3684, 3707, 3706
3353, 3684, 3685, 3708, 3707
3354, 3685, 3686, 3709, 3708
3355, 3686, 3687, 3710, 3709
3356, 3687, 3688, 3711, 3710
3357, 3688, 3689, 3712, 3711
3358, 3689, 3690, 3713, 3712
3359, 3690, 3691, 3714, 3713
3360, 3691,  359,  360, 3714
3361,  422, 3692, 3715,  421
3362, 3692, 3693, 3716, 3715
3363, 3693, 3694, 3717, 3716
3364, 3694, 3695, 3718, 3717
3365, 3695, 3696, 3719, 3718
3366, 3696, 3697, 3720, 3719
3367, 3697, 3698, 3721, 3720
3368, 3698, 3699, 3722, 3721
3369, 3699, 3700, 3723, 3722
3370, 3700, 3701, 3724, 3723
3371, 3701, 3702, 3725, 3724
3372, 3702, 3703, 3726, 3725
3373, 3703, 3704, 3727, 3726
3374, 3704, 3705, 3728, 3727
3375, 3705, 3706, 3729, 3728
3376, 3706, 3707, 3730, 3729
3377, 3707, 3708, 3731, 3730
3378, 3708, 3709, 3732, 3731
3379, 3709, 3710, 3733, 3732
3380, 3710, 3711, 3734, 3733
3381, 3711, 3712, 3735, 3734
3382, 3712, 3713, 3736, 3735
3383, 3713, 3714, 3737, 3736
3384, 3714,  360,  361, 3737
3385,  421, 3715, 3738,  420
3386, 3715, 3716, 3739, 3738
3387, 3716, 3717, 3740, 3739
3388, 3717, 3718, 3741, 3740
3389, 3718, 3719, 3742, 3741
3390, 3719, 3720, 3743, 3742
3391, 3720, 3721, 3744, 3743
3392, 3721, 3722, 3745, 3744
3393, 3722, 3723, 3746, 3745
3394, 3723, 3724, 3747, 3746
3395, 3724, 3725, 3748, 3747
3396, 3725, 3726, 3749, 3748
3397, 3726, 3727, 3750, 3749
3398, 3727, 3728, 3751, 3750
3399, 3728, 3729, 3752, 3751
3400, 3729, 3730, 3753, 3752
3401, 3730, 3731, 3754, 3753
3402, 3731, 3732, 3755, 3754
3403, 3732, 3733, 3756, 3755
3404, 3733, 3734, 3757, 3756
3405, 3734, 3735, 3758, 3757
3406, 3735, 3736, 3759, 3758
3407, 3736, 3737, 3760, 3759
3408, 3737,  361,  362, 3760
3409,  420, 3738, 3761,  419
3410, 3738, 3739, 3762, 3761
3411, 3739, 3740, 3763, 3762
3412, 3740, 3741, 3764, 3763
3413, 3741, 3742, 3765, 3764
3414, 3742, 3743, 3766, 3765
3415, 3743, 3744, 3767, 3766
3416, 3744, 3745, 3768, 3767
3417, 3745, 3746, 3769, 3768
3418, 3746, 3747, 3770, 3769
3419, 3747, 3748, 3771, 3770
3420, 3748, 3749, 3772, 3771
3421, 3749, 3750, 3773, 3772
3422, 3750, 3751, 3774, 3773
3423, 3751, 3752, 3775, 3774
3424, 3752, 3753, 3776, 3775
3425, 3753, 3754, 3777, 3776
3426, 3754, 3755, 3778, 3777
3427, 3755, 3756, 3779, 3778
3428, 3756, 3757, 3780, 3779
3429, 3757, 3758, 3781, 3780
3430, 3758, 3759, 3782, 3781
3431, 3759, 3760, 3783, 3782
3432, 3760,  362,  363, 3783
3433,  419, 3761, 3784,  418
3434, 3761, 3762, 3785, 3784
3435, 3762, 3763, 3786, 3785
3436, 3763, 3764, 3787, 3786
3437, 3764, 3765, 3788, 3787
3438, 3765, 3766, 3789, 3788
3439, 3766, 3767, 3790, 3789
3440, 3767, 3768, 3791, 3790
3441, 3768, 3769, 3792, 3791
3442, 3769, 3770, 3793, 3792
3443, 3770, 3771, 3794, 3793
3444, 3771, 3772, 3795, 3794
3445, 3772, 3773, 3796, 3795
3446, 3773, 3774, 3797, 3796
3447, 3774, 3775, 3798, 3797
3448, 3775, 3776, 3799, 3798
3449, 3776, 3777, 3800, 3799
3450, 3777, 3778, 3801, 3800
3451, 3778, 3779, 3802, 3801
3452, 3779, 3780, 3803, 3802
3453, 3780, 3781, 3804, 3803
3454, 3781, 3782, 3805, 3804
3455, 3782, 3783, 3806, 3805
3456, 3783,  363,  364, 3806
3457,  418, 3784, 3807,  417
3458, 3784, 3785, 3808, 3807
3459, 3785, 3786, 3809, 3808
3460, 3786, 3787, 3810, 3809
3461, 3787, 3788, 3811, 3810
3462, 3788, 3789, 3812, 3811
3463, 3789, 3790, 3813, 3812
3464, 3790, 3791, 3814, 3813
3465, 3791, 3792, 3815, 3814
3466, 3792, 3793, 3816, 3815
3467, 3793, 3794, 3817, 3816
3468, 3794, 3795, 3818, 3817
3469, 3795, 3796, 3819, 3818
3470, 3796, 3797, 3820, 3819
3471, 3797, 3798, 3821, 3820
3472, 3798, 3799, 3822, 3821
3473, 3799, 3800, 3823, 3822
3474, 3800, 3801, 3824, 3823
3475, 3801, 3802, 3825, 3824
3476, 3802, 3803, 3826, 3825
3477, 3803, 3804, 3827, 3826
3478, 3804, 3805, 3828, 3827
3479, 3805, 3806, 3829, 3828
3480, 3806,  364,  365, 3829
3481,  417, 3807, 3830,  416
3482, 3807, 3808, 3831, 3830
3483, 3808, 3809, 3832, 3831
3484, 3809, 3810, 3833, 3832
3485, 3810, 3811, 3834, 3833
3486, 3811, 3812, 3835, 3834
3487, 3812, 3813, 3836, 3835
3488, 3813, 3814, 3837, 3836
3489, 3814, 3815, 3838, 3837
3490, 3815, 3816, 3839, 3838
3491, 3816, 3817, 3840, 3839
3492, 3817, 3818, 3841, 3840
3493, 3818, 3819, 3842, 3841
3494, 3819, 3820, 3843, 3842
3495, 3820, 3821, 3844, 3843
3496, 3821, 3822, 3845, 3844
3497, 3822, 3823, 3846, 3845
3498, 3823, 3824, 3847, 3846
3499, 3824, 3825, 3848, 3847
3500, 3825, 3826, 3849, 3848
3501, 3826, 3827, 3850, 3849
3502, 3827, 3828, 3851, 3850
3503, 3828, 3829, 3852, 3851
3504, 3829,  365,  366, 3852
3505,  416, 3830, 3853,  415
3506, 3830, 3831, 3854, 3853
3507, 3831, 3832, 3855, 3854
3508, 3832, 3833, 3856, 3855
3509, 3833, 3834, 3857, 3856
3510, 3834, 3835, 3858, 3857
3511, 3835, 3836, 3859, 3858
3512, 3836, 3837, 3860, 3859
3513, 3837, 3838, 3861, 3860
3514, 3838, 3839, 3862, 3861
3515, 3839, 3840, 3863, 3862
3516, 3840, 3841, 3864, 3863
3517, 3841, 3842, 3865, 3864
3518, 3842, 3843, 3866, 3865
3519, 3843, 3844, 3867, 3866
3520, 3844, 3845, 3868, 3867
3521, 3845, 3846, 3869, 3868
3522, 3846, 3847, 3870, 3869
3523, 3847, 3848, 3871, 3870
3524, 3848, 3849, 3872, 3871
3525, 3849, 3850, 3873, 3872
3526, 3850, 3851, 3874, 3873
3527, 3851, 3852, 3875, 3874
3528, 3852,  366,  367, 3875
3529,  415, 3853, 3876,  414
3530, 3853, 3854, 3877, 3876
3531, 3854, 3855, 3878, 3877
3532, 3855, 3856, 3879, 3878
3533, 3856, 3857, 3880, 3879
3534, 3857, 3858, 3881, 3880
3535, 3858, 3859, 3882, 3881
3536, 3859, 3860, 3883, 3882
3537, 3860, 3861, 3884, 3883
3538, 3861, 3862, 3885, 3884
3539, 3862, 3863, 3886, 3885
3540, 3863, 3864, 3887, 3886
3541, 3864, 3865, 3888, 3887
3542, 3865, 3866, 3889, 3888
3543, 3866, 3867, 3890, 3889
3544, 3867, 3868, 3891, 3890
3545, 3868, 3869, 3892, 3891
3546, 3869, 3870, 3893, 3892
3547, 3870, 3871, 3894, 3893
3548, 3871, 3872, 3895, 3894
3549, 3872, 3873, 3896, 3895
3550, 3873, 3874, 3897, 3896
3551, 3874, 3875, 3898, 3897
3552, 3875,  367,  368, 3898
3553,  414, 3876, 3899,  413
3554, 3876, 3877, 3900, 3899
3555, 3877, 3878, 3901, 3900
3556, 3878, 3879, 3902, 3901
3557, 3879, 3880, 3903, 3902
3558, 3880, 3881, 3904, 3903
3559, 3881, 3882, 3905, 3904
3560, 3882, 3883, 3906, 3905
3561, 3883, 3884, 3907, 3906
3562, 3884, 3885, 3908, 3907
3563, 3885, 3886, 3909, 3908
3564, 3886, 3887, 3910, 3909
3565, 3887, 3888, 3911, 3910
3566, 3888, 3889, 3912, 3911
3567, 3889, 3890, 3913, 3912
3568, 3890, 3891, 3914, 3913
3569, 3891, 3892, 3915, 3914
3570, 3892, 3893, 3916, 3915
3571, 3893, 3894, 3917, 3916
3572, 3894, 3895, 3918, 3917
3573, 3895, 3896, 3919, 3918
3574, 3896, 3897, 3920, 3919
3575, 3897, 3898, 3921, 3920
3576, 3898,  368,  369, 3921
3577,  413, 3899, 3922,  412
3578, 3899, 3900, 3923, 3922
3579, 3900, 3901, 3924, 3923
3580, 3901, 3902, 3925, 3924
3581, 3902, 3903, 3926, 3925
3582, 3903, 3904, 3927, 3926
3583, 3904, 3905, 3928, 3927
3584, 3905, 3906, 3929, 3928
3585, 3906, 3907, 3930, 3929
3586, 3907, 3908, 3931, 3930
3587, 3908, 3909, 3932, 3931
3588, 3909, 3910, 3933, 3932
3589, 3910, 3911, 3934, 3933
3590, 3911, 3912, 3935, 3934
3591, 3912, 3913, 3936, 3935
3592, 3913, 3914, 3937, 3936
3593, 3914, 3915, 3938, 3937
3594, 3915, 3916, 3939, 3938
3595, 3916, 3917, 3940, 3939
3596, 3917, 3918, 3941, 3940
3597, 3918, 3919, 3942, 3941
3598, 3919, 3920, 3943, 3942
3599, 3920, 3921, 3944, 3943
3600, 3921,  369,  370, 3944
3601,  412, 3922, 3945,  411
3602, 3922, 3923, 3946, 3945
3603, 3923, 3924, 3947, 3946
3604, 3924, 3925, 3948, 3947
3605, 3925, 3926, 3949, 3948
3606, 3926, 3927, 3950, 3949
3607, 3927, 3928, 3951, 3950
3608, 3928, 3929, 3952, 3951
3609, 3929, 3930, 3953, 3952
3610, 3930, 3931, 3954, 3953
3611, 3931, 3932, 3955, 3954
3612, 3932, 3933, 3956, 3955
3613, 3933, 3934, 3957, 3956
3614, 3934, 3935, 3958, 3957
3615, 3935, 3936, 3959, 3958
3616, 3936, 3937, 3960, 3959
3617, 3937, 3938, 3961, 3960
3618, 3938, 3939, 3962, 3961
3619, 3939, 3940, 3963, 3962
3620, 3940, 3941, 3964, 3963
3621, 3941, 3942, 3965, 3964
3622, 3942, 3943, 3966, 3965
3623, 3943, 3944, 3967, 3966
3624, 3944,  370,  371, 3967
3625,  411, 3945, 3968,  410
3626, 3945, 3946, 3969, 3968
3627, 3946, 3947, 3970, 3969
3628, 3947, 3948, 3971, 3970
3629, 3948, 3949, 3972, 3971
3630, 3949, 3950, 3973, 3972
3631, 3950, 3951, 3974, 3973
3632, 3951, 3952, 3975, 3974
3633, 3952, 3953, 3976, 3975
3634, 3953, 3954, 3977, 3976
3635, 3954, 3955, 3978, 3977
3636, 3955, 3956, 3979, 3978
3637, 3956, 3957, 3980, 3979
3638, 3957, 3958, 3981, 3980
3639, 3958, 3959, 3982, 3981
3640, 3959, 3960, 3983, 3982
3641, 3960, 3961, 3984, 3983
3642, 3961, 3962, 3985, 3984
3643, 3962, 3963, 3986, 3985
3644, 3963, 3964, 3987, 3986
3645, 3964, 3965, 3988, 3987
3646, 3965, 3966, 3989, 3988
3647, 3966, 3967, 3990, 3989
3648, 3967,  371,  372, 3990
3649,  410, 3968, 3991,  409
3650, 3968, 3969, 3992, 3991
3651, 3969, 3970, 3993, 3992
3652, 3970, 3971, 3994, 3993
3653, 3971, 3972, 3995, 3994
3654, 3972, 3973, 3996, 3995
3655, 3973, 3974, 3997, 3996
3656, 3974, 3975, 3998, 3997
3657, 3975, 3976, 3999, 3998
3658, 3976, 3977, 4000, 3999
3659, 3977, 3978, 4001, 4000
3660, 3978, 3979, 4002, 4001
3661, 3979, 3980, 4003, 4002
3662, 3980, 3981, 4004, 4003
3663, 3981, 3982, 4005, 4004
3664, 3982, 3983, 4006, 4005
3665, 3983, 3984, 4007, 4006
3666, 3984, 3985, 4008, 4007
3667, 3985, 3986, 4009, 4008
3668, 3986, 3987, 4010, 4009
3669, 3987, 3988, 4011, 4010
3670, 3988, 3989, 4012, 4011
3671, 3989, 3990, 4013, 4012
3672, 3990,  372,  373, 4013
3673,  409, 3991, 4014,  408
3674, 3991, 3992, 4015, 4014
3675, 3992, 3993, 4016, 4015
3676, 3993, 3994, 4017, 4016
3677, 3994, 3995, 4018, 4017
3678, 3995, 3996, 4019, 4018
3679, 3996, 3997, 4020, 4019
3680, 3997, 3998, 4021, 4020
3681, 3998, 3999, 4022, 4021
3682, 3999, 4000, 4023, 4022
3683, 4000, 4001, 4024, 4023
3684, 4001, 4002, 4025, 4024
3685, 4002, 4003, 4026, 4025
3686, 4003, 4004, 4027, 4026
3687, 4004, 4005, 4028, 4027
3688, 4005, 4006, 4029, 4028
3689, 4006, 4007, 4030, 4029
3690, 4007, 4008, 4031, 4030
3691, 4008, 4009, 4032, 4031
3692, 4009, 4010, 4033, 4032
3693, 4010, 4011, 4034, 4033
3694, 4011, 4012, 4035, 4034
3695, 4012, 4013, 4036, 4035
3696, 4013,  373,  374, 4036
3697,  408, 4014, 4037,  407
3698, 4014, 4015, 4038, 4037
3699, 4015, 4016, 4039, 4038
3700, 4016, 4017, 4040, 4039
3701, 4017, 4018, 4041, 4040
3702, 4018, 4019, 4042, 4041
3703, 4019, 4020, 4043, 4042
3704, 4020, 4021, 4044, 4043
3705, 4021, 4022, 4045, 4044
3706, 4022, 4023, 4046, 4045
3707, 4023, 4024, 4047, 4046
3708, 4024, 4025, 4048, 4047
3709, 4025, 4026, 4049, 4048
3710, 4026, 4027, 4050, 4049
3711, 4027, 4028, 4051, 4050
3712, 4028, 4029, 4052, 4051
3713, 4029, 4030, 4053, 4052
3714, 4030, 4031, 4054, 4053
3715, 4031, 4032, 4055, 4054
3716, 4032, 4033, 4056, 4055
3717, 4033, 4034, 4057, 4056
3718, 4034, 4035, 4058, 4057
3719, 4035, 4036, 4059, 4058
3720, 4036,  374,  375, 4059
3721,  407, 4037, 4060,  406
3722, 4037, 4038, 4061, 4060
3723, 4038, 4039, 4062, 4061
3724, 4039, 4040, 4063, 4062
3725, 4040, 4041, 4064, 4063
3726, 4041, 4042, 4065, 4064
3727, 4042, 4043, 4066, 4065
3728, 4043, 4044, 4067, 4066
3729, 4044, 4045, 4068, 4067
3730, 4045, 4046, 4069, 4068
3731, 4046, 4047, 4070, 4069
3732, 4047, 4048, 4071, 4070
3733, 4048, 4049, 4072, 4071
3734, 4049, 4050, 4073, 4072
3735, 4050, 4051, 4074, 4073
3736, 4051, 4052, 4075, 4074
3737, 4052, 4053, 4076, 4075
3738, 4053, 4054, 4077, 4076
3739, 4054, 4055, 4078, 4077
3740, 4055, 4056, 4079, 4078
3741, 4056, 4057, 4080, 4079
3742, 4057, 4058, 4081, 4080
3743, 4058, 4059, 4082, 4081
3744, 4059,  375,  376, 4082
3745,  406, 4060, 4083,  405
3746, 4060, 4061, 4084, 4083
3747, 4061, 4062, 4085, 4084
3748, 4062, 4063, 4086, 4085
3749, 4063, 4064, 4087, 4086
3750, 4064, 4065, 4088, 4087
3751, 4065, 4066, 4089, 4088
3752, 4066, 4067, 4090, 4089
3753, 4067, 4068, 4091, 4090
3754, 4068, 4069, 4092, 4091
3755, 4069, 4070, 4093, 4092
3756, 4070, 4071, 4094, 4093
3757, 4071, 4072, 4095, 4094
3758, 4072, 4073, 4096, 4095
3759, 4073, 4074, 4097, 4096
3760, 4074, 4075, 4098, 4097
3761, 4075, 4076, 4099, 4098
3762, 4076, 4077, 4100, 4099
3763, 4077, 4078, 4101, 4100
3764, 4078, 4079, 4102, 4101
3765, 4079, 4080, 4103, 4102
3766, 4080, 4081, 4104, 4103
3767, 4081, 4082, 4105, 4104
3768, 4082,  376,  377, 4105
3769,  405, 4083, 4106,  404
3770, 4083, 4084, 4107, 4106
3771, 4084, 4085, 4108, 4107
3772, 4085, 4086, 4109, 4108
3773, 4086, 4087, 4110, 4109
3774, 4087, 4088, 4111, 4110
3775, 4088, 4089, 4112, 4111
3776, 4089, 4090, 4113, 4112
3777, 4090, 4091, 4114, 4113
3778, 4091, 4092, 4115, 4114
3779, 4092, 4093, 4116, 4115
3780, 4093, 4094, 4117, 4116
3781, 4094, 4095, 4118, 4117
3782, 4095, 4096, 4119, 4118
3783, 4096, 4097, 4120, 4119
3784, 4097, 4098, 4121, 4120
3785, 4098, 4099, 4122, 4121
3786, 4099, 4100, 4123, 4122
3787, 4100, 4101, 4124, 4123
3788, 4101, 4102, 4125, 4124
3789, 4102, 4103, 4126, 4125
3790, 4103, 4104, 4127, 4126
3791, 4104, 4105, 4128, 4127
3792, 4105,  377,  378, 4128
3793,  404, 4106, 4129,  403
3794, 4106, 4107, 4130, 4129
3795, 4107, 4108, 4131, 4130
3796, 4108, 4109, 4132, 4131
3797, 4109, 4110, 4133, 4132
3798, 4110, 4111, 4134, 4133
3799, 4111, 4112, 4135, 4134
3800, 4112, 4113, 4136, 4135
3801, 4113, 4114, 4137, 4136
3802, 4114, 4115, 4138, 4137
3803, 4115, 4116, 4139, 4138
3804, 4116, 4117, 4140, 4139
3805, 4117, 4118, 4141, 4140
3806, 4118, 4119, 4142, 4141
3807, 4119, 4120, 4143, 4142
3808, 4120, 4121, 4144, 4143
3809, 4121, 4122, 4145, 4144
3810, 4122, 4123, 4146, 4145
3811, 4123, 4124, 4147, 4146
3812, 4124, 4125, 4148, 4147
3813, 4125, 4126, 4149, 4148
3814, 4126, 4127, 4150, 4149
3815, 4127, 4128, 4151, 4150
3816, 4128,  378,  379, 4151
3817,  403, 4129,  402,   10
3818, 4129, 4130,  401,  402
3819, 4130, 4131,  400,  401
3820, 4131, 4132,  399,  400
3821, 4132, 4133,  398,  399
3822, 4133, 4134,  397,  398
3823, 4134, 4135,  396,  397
3824, 4135, 4136,  395,  396
3825, 4136, 4137,  394,  395
3826, 4137, 4138,  393,  394
3827, 4138, 4139,  392,  393
3828, 4139, 4140,  391,  392
3829, 4140, 4141,  390,  391
3830, 4141, 4142,  389,  390
3831, 4142, 4143,  388,  389
3832, 4143, 4144,  387,  388
3833, 4144, 4145,  386,  387
3834, 4145, 4146,  385,  386
3835, 4146, 4147,  384,  385
3836, 4147, 4148,  383,  384
3837, 4148, 4149,  382,  383
3838, 4149, 4150,  381,  382
3839, 4150, 4151,  380,  381
3840, 4151,  379,    9,  380
3841,   10,  402, 4152,  502
3842,  402,  401, 4153, 4152
3843,  401,  400, 4154, 4153
3844,  400,  399, 4155, 4154
3845,  399,  398, 4156, 4155
3846,  398,  397, 4157, 4156
3847,  397,  396, 4158, 4157
3848,  396,  395, 4159, 4158
3849,  395,  394, 4160, 4159
3850,  394,  393, 4161, 4160
3851,  393,  392, 4162, 4161
3852,  392,  391, 4163, 4162
3853,  391,  390, 4164, 4163
3854,  390,  389, 4165, 4164
3855,  389,  388, 4166, 4165
3856,  388,  387, 4167, 4166
3857,  387,  386, 4168, 4167
3858,  386,  385, 4169, 4168
3859,  385,  384, 4170, 4169
3860,  384,  383, 4171, 4170
3861,  383,  382, 4172, 4171
3862,  382,  381, 4173, 4172
3863,  381,  380, 4174, 4173
3864,  380,    9,  442, 4174
3865,  502, 4152, 4175,  501
3866, 4152, 4153, 4176, 4175
3867, 4153, 4154, 4177, 4176
3868, 4154, 4155, 4178, 4177
3869, 4155, 4156, 4179, 4178
3870, 4156, 4157, 4180, 4179
3871, 4157, 4158, 4181, 4180
3872, 4158, 4159, 4182, 4181
3873, 4159, 4160, 4183, 4182
3874, 4160, 4161, 4184, 4183
3875, 4161, 4162, 4185, 4184
3876, 4162, 4163, 4186, 4185
3877, 4163, 4164, 4187, 4186
3878, 4164, 4165, 4188, 4187
3879, 4165, 4166, 4189, 4188
3880, 4166, 4167, 4190, 4189
3881, 4167, 4168, 4191, 4190
3882, 4168, 4169, 4192, 4191
3883, 4169, 4170, 4193, 4192
3884, 4170, 4171, 4194, 4193
3885, 4171, 4172, 4195, 4194
3886, 4172, 4173, 4196, 4195
3887, 4173, 4174, 4197, 4196
3888, 4174,  442,  443, 4197
3889,  501, 4175, 4198,  500
3890, 4175, 4176, 4199, 4198
3891, 4176, 4177, 4200, 4199
3892, 4177, 4178, 4201, 4200
3893, 4178, 4179, 4202, 4201
3894, 4179, 4180, 4203, 4202
3895, 4180, 4181, 4204, 4203
3896, 4181, 4182, 4205, 4204
3897, 4182, 4183, 4206, 4205
3898, 4183, 4184, 4207, 4206
3899, 4184, 4185, 4208, 4207
3900, 4185, 4186, 4209, 4208
3901, 4186, 4187, 4210, 4209
3902, 4187, 4188, 4211, 4210
3903, 4188, 4189, 4212, 4211
3904, 4189, 4190, 4213, 4212
3905, 4190, 4191, 4214, 4213
3906, 4191, 4192, 4215, 4214
3907, 4192, 4193, 4216, 4215
3908, 4193, 4194, 4217, 4216
3909, 4194, 4195, 4218, 4217
3910, 4195, 4196, 4219, 4218
3911, 4196, 4197, 4220, 4219
3912, 4197,  443,  444, 4220
3913,  500, 4198, 4221,  499
3914, 4198, 4199, 4222, 4221
3915, 4199, 4200, 4223, 4222
3916, 4200, 4201, 4224, 4223
3917, 4201, 4202, 4225, 4224
3918, 4202, 4203, 4226, 4225
3919, 4203, 4204, 4227, 4226
3920, 4204, 4205, 4228, 4227
3921, 4205, 4206, 4229, 4228
3922, 4206, 4207, 4230, 4229
3923, 4207, 4208, 4231, 4230
3924, 4208, 4209, 4232, 4231
3925, 4209, 4210, 4233, 4232
3926, 4210, 4211, 4234, 4233
3927, 4211, 4212, 4235, 4234
3928, 4212, 4213, 4236, 4235
3929, 4213, 4214, 4237, 4236
3930, 4214, 4215, 4238, 4237
3931, 4215, 4216, 4239, 4238
3932, 4216, 4217, 4240, 4239
3933, 4217, 4218, 4241, 4240
3934, 4218, 4219, 4242, 4241
3935, 4219, 4220, 4243, 4242
3936, 4220,  444,  445, 4243
3937,  499, 4221, 4244,  498
3938, 4221, 4222, 4245, 4244
3939, 4222, 4223, 4246, 4245
3940, 4223, 4224, 4247, 4246
3941, 4224, 4225, 4248, 4247
3942, 4225, 4226, 4249, 4248
3943, 4226, 4227, 4250, 4249
3944, 4227, 4228, 4251, 4250
3945, 4228, 4229, 4252, 4251
3946, 4229, 4230, 4253, 4252
3947, 4230, 4231, 4254, 4253
3948, 4231, 4232, 4255, 4254
3949, 4232, 4233, 4256, 4255
3950, 4233, 4234, 4257, 4256
3951, 4234, 4235, 4258, 4257
3952, 4235, 4236, 4259, 4258
3953, 4236, 4237, 4260, 4259
3954, 4237, 4238, 4261, 4260
3955, 4238, 4239, 4262, 4261
3956, 4239, 4240, 4263, 4262
3957, 4240, 4241, 4264, 4263
3958, 4241, 4242, 4265, 4264
3959, 4242, 4243, 4266, 4265
3960, 4243,  445,  446, 4266
3961,  498, 4244, 4267,  497
3962, 4244, 4245, 4268, 4267
3963, 4245, 4246, 4269, 4268
3964, 4246, 4247, 4270, 4269
3965, 4247, 4248, 4271, 4270
3966, 4248, 4249, 4272, 4271
3967, 4249, 4250, 4273, 4272
3968, 4250, 4251, 4274, 4273
3969, 4251, 4252, 4275, 4274
3970, 4252, 4253, 4276, 4275
3971, 4253, 4254, 4277, 4276
3972, 4254, 4255, 4278, 4277
3973, 4255, 4256, 4279, 4278
3974, 4256, 4257, 4280, 4279
3975, 4257, 4258, 4281, 4280
3976, 4258, 4259, 4282, 4281
3977, 4259, 4260, 4283, 4282
3978, 4260, 4261, 4284, 4283
3979, 4261, 4262, 4285, 4284
3980, 4262, 4263, 4286, 4285
3981, 4263, 4264, 4287, 4286
3982, 4264, 4265, 4288, 4287
3983, 4265, 4266, 4289, 4288
3984, 4266,  446,  447, 4289
3985,  497, 4267, 4290,  496
3986, 4267, 4268, 4291, 4290
3987, 4268, 4269, 4292, 4291
3988, 4269, 4270, 4293, 4292
3989, 4270, 4271, 4294, 4293
3990, 4271, 4272, 4295, 4294
3991, 4272, 4273, 4296, 4295
3992, 4273, 4274, 4297, 4296
3993, 4274, 4275, 4298, 4297
3994, 4275, 4276, 4299, 4298
3995, 4276, 4277, 4300, 4299
3996, 4277, 4278, 4301, 4300
3997, 4278, 4279, 4302, 4301
3998, 4279, 4280, 4303, 4302
3999, 4280, 4281, 4304, 4303
4000, 4281, 4282, 4305, 4304
4001, 4282, 4283, 4306, 4305
4002, 4283, 4284, 4307, 4306
4003, 4284, 4285, 4308, 4307
4004, 4285, 4286, 4309, 4308
4005, 4286, 4287, 4310, 4309
4006, 4287, 4288, 4311, 4310
4007, 4288, 4289, 4312, 4311
4008, 4289,  447,  448, 4312
4009,  496, 4290, 4313,  495
4010, 4290, 4291, 4314, 4313
4011, 4291, 4292, 4315, 4314
4012, 4292, 4293, 4316, 4315
4013, 4293, 4294, 4317, 4316
4014, 4294, 4295, 4318, 4317
4015, 4295, 4296, 4319, 4318
4016, 4296, 4297, 4320, 4319
4017, 4297, 4298, 4321, 4320
4018, 4298, 4299, 4322, 4321
4019, 4299, 4300, 4323, 4322
4020, 4300, 4301, 4324, 4323
4021, 4301, 4302, 4325, 4324
4022, 4302, 4303, 4326, 4325
4023, 4303, 4304, 4327, 4326
4024, 4304, 4305, 4328, 4327
4025, 4305, 4306, 4329, 4328
4026, 4306, 4307, 4330, 4329
4027, 4307, 4308, 4331, 4330
4028, 4308, 4309, 4332, 4331
4029, 4309, 4310, 4333, 4332
4030, 4310, 4311, 4334, 4333
4031, 4311, 4312, 4335, 4334
4032, 4312,  448,  449, 4335
4033,  495, 4313, 4336,  494
4034, 4313, 4314, 4337, 4336
4035, 4314, 4315, 4338, 4337
4036, 4315, 4316, 4339, 4338
4037, 4316, 4317, 4340, 4339
4038, 4317, 4318, 4341, 4340
4039, 4318, 4319, 4342, 4341
4040, 4319, 4320, 4343, 4342
4041, 4320, 4321, 4344, 4343
4042, 4321, 4322, 4345, 4344
4043, 4322, 4323, 4346, 4345
4044, 4323, 4324, 4347, 4346
4045, 4324, 4325, 4348, 4347
4046, 4325, 4326, 4349, 4348
4047, 4326, 4327, 4350, 4349
4048, 4327, 4328, 4351, 4350
4049, 4328, 4329, 4352, 4351
4050, 4329, 4330, 4353, 4352
4051, 4330, 4331, 4354, 4353
4052, 4331, 4332, 4355, 4354
4053, 4332, 4333, 4356, 4355
4054, 4333, 4334, 4357, 4356
4055, 4334, 4335, 4358, 4357
4056, 4335,  449,  450, 4358
4057,  494, 4336, 4359,  493
4058, 4336, 4337, 4360, 4359
4059, 4337, 4338, 4361, 4360
4060, 4338, 4339, 4362, 4361
4061, 4339, 4340, 4363, 4362
4062, 4340, 4341, 4364, 4363
4063, 4341, 4342, 4365, 4364
4064, 4342, 4343, 4366, 4365
4065, 4343, 4344, 4367, 4366
4066, 4344, 4345, 4368, 4367
4067, 4345, 4346, 4369, 4368
4068, 4346, 4347, 4370, 4369
4069, 4347, 4348, 4371, 4370
4070, 4348, 4349, 4372, 4371
4071, 4349, 4350, 4373, 4372
4072, 4350, 4351, 4374, 4373
4073, 4351, 4352, 4375, 4374
4074, 4352, 4353, 4376, 4375
4075, 4353, 4354, 4377, 4376
4076, 4354, 4355, 4378, 4377
4077, 4355, 4356, 4379, 4378
4078, 4356, 4357, 4380, 4379
4079, 4357, 4358, 4381, 4380
4080, 4358,  450,  451, 4381
4081,  493, 4359, 4382,  492
4082, 4359, 4360, 4383, 4382
4083, 4360, 4361, 4384, 4383
4084, 4361, 4362, 4385, 4384
4085, 4362, 4363, 4386, 4385
4086, 4363, 4364, 4387, 4386
4087, 4364, 4365, 4388, 4387
4088, 4365, 4366, 4389, 4388
4089, 4366, 4367, 4390, 4389
4090, 4367, 4368, 4391, 4390
4091, 4368, 4369, 4392, 4391
4092, 4369, 4370, 4393, 4392
4093, 4370, 4371, 4394, 4393
4094, 4371, 4372, 4395, 4394
4095, 4372, 4373, 4396, 4395
4096, 4373, 4374, 4397, 4396
4097, 4374, 4375, 4398, 4397
4098, 4375, 4376, 4399, 4398
4099, 4376, 4377, 4400, 4399
4100, 4377, 4378, 4401, 4400
4101, 4378, 4379, 4402, 4401
4102, 4379, 4380, 4403, 4402
4103, 4380, 4381, 4404, 4403
4104, 4381,  451,  452, 4404
4105,  492, 4382, 4405,  491
4106, 4382, 4383, 4406, 4405
4107, 4383, 4384, 4407, 4406
4108, 4384, 4385, 4408, 4407
4109, 4385, 4386, 4409, 4408
4110, 4386, 4387, 4410, 4409
4111, 4387, 4388, 4411, 4410
4112, 4388, 4389, 4412, 4411
4113, 4389, 4390, 4413, 4412
4114, 4390, 4391, 4414, 4413
4115, 4391, 4392, 4415, 4414
4116, 4392, 4393, 4416, 4415
4117, 4393, 4394, 4417, 4416
4118, 4394, 4395, 4418, 4417
4119, 4395, 4396, 4419, 4418
4120, 4396, 4397, 4420, 4419
4121, 4397, 4398, 4421, 4420
4122, 4398, 4399, 4422, 4421
4123, 4399, 4400, 4423, 4422
4124, 4400, 4401, 4424, 4423
4125, 4401, 4402, 4425, 4424
4126, 4402, 4403, 4426, 4425
4127, 4403, 4404, 4427, 4426
4128, 4404,  452,  453, 4427
4129,  491, 4405, 4428,  490
4130, 4405, 4406, 4429, 4428
4131, 4406, 4407, 4430, 4429
4132, 4407, 4408, 4431, 4430
4133, 4408, 4409, 4432, 4431
4134, 4409, 4410, 4433, 4432
4135, 4410, 4411, 4434, 4433
4136, 4411, 4412, 4435, 4434
4137, 4412, 4413, 4436, 4435
4138, 4413, 4414, 4437, 4436
4139, 4414, 4415, 4438, 4437
4140, 4415, 4416, 4439, 4438
4141, 4416, 4417, 4440, 4439
4142, 4417, 4418, 4441, 4440
4143, 4418, 4419, 4442, 4441
4144, 4419, 4420, 4443, 4442
4145, 4420, 4421, 4444, 4443
4146, 4421, 4422, 4445, 4444
4147, 4422, 4423, 4446, 4445
4148, 4423, 4424, 4447, 4446
4149, 4424, 4425, 4448, 4447
4150, 4425, 4426, 4449, 4448
4151, 4426, 4427, 4450, 4449
4152, 4427,  453,  454, 4450
4153,  490, 4428, 4451,  489
4154, 4428, 4429, 4452, 4451
4155, 4429, 4430, 4453, 4452
4156, 4430, 4431, 4454, 4453
4157, 4431, 4432, 4455, 4454
4158, 4432, 4433, 4456, 4455
4159, 4433, 4434, 4457, 4456
4160, 4434, 4435, 4458, 4457
4161, 4435, 4436, 4459, 4458
4162, 4436, 4437, 4460, 4459
4163, 4437, 4438, 4461, 4460
4164, 4438, 4439, 4462, 4461
4165, 4439, 4440, 4463, 4462
4166, 4440, 4441, 4464, 4463
4167, 4441, 4442, 4465, 4464
4168, 4442, 4443, 4466, 4465
4169, 4443, 4444, 4467, 4466
4170, 4444, 4445, 4468, 4467
4171, 4445, 4446, 4469, 4468
4172, 4446, 4447, 4470, 4469
4173, 4447, 4448, 4471, 4470
4174, 4448, 4449, 4472, 4471
4175, 4449, 4450, 4473, 4472
4176, 4450,  454,  455, 4473
4177,  489, 4451, 4474,  488
4178, 4451, 4452, 4475, 4474
4179, 4452, 4453, 4476, 4475
4180, 4453, 4454, 4477, 4476
4181, 4454, 4455, 4478, 4477
4182, 4455, 4456, 4479, 4478
4183, 4456, 4457, 4480, 4479
4184, 4457, 4458, 4481, 4480
4185, 4458, 4459, 4482, 4481
4186, 4459, 4460, 4483, 4482
4187, 4460, 4461, 4484, 4483
4188, 4461, 4462, 4485, 4484
4189, 4462, 4463, 4486, 4485
4190, 4463, 4464, 4487, 4486
4191, 4464, 4465, 4488, 4487
4192, 4465, 4466, 4489, 4488
4193, 4466, 4467, 4490, 4489
4194, 4467, 4468, 4491, 4490
4195, 4468, 4469, 4492, 4491
4196, 4469, 4470, 4493, 4492
4197, 4470, 4471, 4494, 4493
4198, 4471, 4472, 4495, 4494
4199, 4472, 4473, 4496, 4495
4200, 4473,  455,  456, 4496
4201,  488, 4474, 4497,  487
4202, 4474, 4475, 4498, 4497
4203, 4475, 4476, 4499, 4498
4204, 4476, 4477, 4500, 4499
4205, 4477, 4478, 4501, 4500
4206, 4478, 4479, 4502, 4501
4207, 4479, 4480, 4503, 4502
4208, 4480, 4481, 4504, 4503
4209, 4481, 4482, 4505, 4504
4210, 4482, 4483, 4506, 4505
4211, 4483, 4484, 4507, 4506
4212, 4484, 4485, 4508, 4507
4213, 4485, 4486, 4509, 4508
4214, 4486, 4487, 4510, 4509
4215, 4487, 4488, 4511, 4510
4216, 4488, 4489, 4512, 4511
4217, 4489, 4490, 4513, 4512
4218, 4490, 4491, 4514, 4513
4219, 4491, 4492, 4515, 4514
4220, 4492, 4493, 4516, 4515
4221, 4493, 4494, 4517, 4516
4222, 4494, 4495, 4518, 4517
4223, 4495, 4496, 4519, 4518
4224, 4496,  456,  457, 4519
4225,  487, 4497, 4520,  486
4226, 4497, 4498, 4521, 4520
4227, 4498, 4499, 4522, 4521
4228, 4499, 4500, 4523, 4522
4229, 4500, 4501, 4524, 4523
4230, 4501, 4502, 4525, 4524
4231, 4502, 4503, 4526, 4525
4232, 4503, 4504, 4527, 4526
4233, 4504, 4505, 4528, 4527
4234, 4505, 4506, 4529, 4528
4235, 4506, 4507, 4530, 4529
4236, 4507, 4508, 4531, 4530
4237, 4508, 4509, 4532, 4531
4238, 4509, 4510, 4533, 4532
4239, 4510, 4511, 4534, 4533
4240, 4511, 4512, 4535, 4534
4241, 4512, 4513, 4536, 4535
4242, 4513, 4514, 4537, 4536
4243, 4514, 4515, 4538, 4537
4244, 4515, 4516, 4539, 4538
4245, 4516, 4517, 4540, 4539
4246, 4517, 4518, 4541, 4540
4247, 4518, 4519, 4542, 4541
4248, 4519,  457,  458, 4542
4249,  486, 4520, 4543,  485
4250, 4520, 4521, 4544, 4543
4251, 4521, 4522, 4545, 4544
4252, 4522, 4523, 4546, 4545
4253, 4523, 4524, 4547, 4546
4254, 4524, 4525, 4548, 4547
4255, 4525, 4526, 4549, 4548
4256, 4526, 4527, 4550, 4549
4257, 4527, 4528, 4551, 4550
4258, 4528, 4529, 4552, 4551
4259, 4529, 4530, 4553, 4552
4260, 4530, 4531, 4554, 4553
4261, 4531, 4532, 4555, 4554
4262, 4532, 4533, 4556, 4555
4263, 4533, 4534, 4557, 4556
4264, 4534, 4535, 4558, 4557
4265, 4535, 4536, 4559, 4558
4266, 4536, 4537, 4560, 4559
4267, 4537, 4538, 4561, 4560
4268, 4538, 4539, 4562, 4561
4269, 4539, 4540, 4563, 4562
4270, 4540, 4541, 4564, 4563
4271, 4541, 4542, 4565, 4564
4272, 4542,  458,  459, 4565
4273,  485, 4543, 4566,  484
4274, 4543, 4544, 4567, 4566
4275, 4544, 4545, 4568, 4567
4276, 4545, 4546, 4569, 4568
4277, 4546, 4547, 4570, 4569
4278, 4547, 4548, 4571, 4570
4279, 4548, 4549, 4572, 4571
4280, 4549, 4550, 4573, 4572
4281, 4550, 4551, 4574, 4573
4282, 4551, 4552, 4575, 4574
4283, 4552, 4553, 4576, 4575
4284, 4553, 4554, 4577, 4576
4285, 4554, 4555, 4578, 4577
4286, 4555, 4556, 4579, 4578
4287, 4556, 4557, 4580, 4579
4288, 4557, 4558, 4581, 4580
4289, 4558, 4559, 4582, 4581
4290, 4559, 4560, 4583, 4582
4291, 4560, 4561, 4584, 4583
4292, 4561, 4562, 4585, 4584
4293, 4562, 4563, 4586, 4585
4294, 4563, 4564, 4587, 4586
4295, 4564, 4565, 4588, 4587
4296, 4565,  459,  460, 4588
4297,  484, 4566,  483,   12
4298, 4566, 4567,  482,  483
4299, 4567, 4568,  481,  482
4300, 4568, 4569,  480,  481
4301, 4569, 4570,  479,  480
4302, 4570, 4571,  478,  479
4303, 4571, 4572,  477,  478
4304, 4572, 4573,  476,  477
4305, 4573, 4574,  475,  476
4306, 4574, 4575,  474,  475
4307, 4575, 4576,  473,  474
4308, 4576, 4577,  472,  473
4309, 4577, 4578,  471,  472
4310, 4578, 4579,  470,  471
4311, 4579, 4580,  469,  470
4312, 4580, 4581,  468,  469
4313, 4581, 4582,  467,  468
4314, 4582, 4583,  466,  467
4315, 4583, 4584,  465,  466
4316, 4584, 4585,  464,  465
4317, 4585, 4586,  463,  464
4318, 4586, 4587,  462,  463
4319, 4587, 4588,  461,  462
4320, 4588,  460,   11,  461
4321,    2,   37, 4589,  563
4322,   37,   36, 4590, 4589
4323,   36,   35, 4591, 4590
4324,   35,   34, 4592, 4591
4325,   34,   33, 4593, 4592
4326,   33,   32, 4594, 4593
4327,   32,   31, 4595, 4594
4328,   31,   30, 4596, 4595
4329,   30,   29, 4597, 4596
4330,   29,   28, 4598, 4597
4331,   28,   27, 4599, 4598
4332,   27,   26, 4600, 4599
4333,   26,   25, 4601, 4600
4334,   25,   24, 4602, 4601
4335,   24,   23, 4603, 4602
4336,   23,   22, 4604, 4603
4337,   22,   21, 4605, 4604
4338,   21,   20, 4606, 4605
4339,   20,   19, 4607, 4606
4340,   19,   18, 4608, 4607
4341,   18,   17, 4609, 4608
4342,   17,   16, 4610, 4609
4343,   16,   15, 4611, 4610
4344,   15,    1,  503, 4611
4345,  563, 4589, 4612,  562
4346, 4589, 4590, 4613, 4612
4347, 4590, 4591, 4614, 4613
4348, 4591, 4592, 4615, 4614
4349, 4592, 4593, 4616, 4615
4350, 4593, 4594, 4617, 4616
4351, 4594, 4595, 4618, 4617
4352, 4595, 4596, 4619, 4618
4353, 4596, 4597, 4620, 4619
4354, 4597, 4598, 4621, 4620
4355, 4598, 4599, 4622, 4621
4356, 4599, 4600, 4623, 4622
4357, 4600, 4601, 4624, 4623
4358, 4601, 4602, 4625, 4624
4359, 4602, 4603, 4626, 4625
4360, 4603, 4604, 4627, 4626
4361, 4604, 4605, 4628, 4627
4362, 4605, 4606, 4629, 4628
4363, 4606, 4607, 4630, 4629
4364, 4607, 4608, 4631, 4630
4365, 4608, 4609, 4632, 4631
4366, 4609, 4610, 4633, 4632
4367, 4610, 4611, 4634, 4633
4368, 4611,  503,  504, 4634
4369,  562, 4612, 4635,  561
4370, 4612, 4613, 4636, 4635
4371, 4613, 4614, 4637, 4636
4372, 4614, 4615, 4638, 4637
4373, 4615, 4616, 4639, 4638
4374, 4616, 4617, 4640, 4639
4375, 4617, 4618, 4641, 4640
4376, 4618, 4619, 4642, 4641
4377, 4619, 4620, 4643, 4642
4378, 4620, 4621, 4644, 4643
4379, 4621, 4622, 4645, 4644
4380, 4622, 4623, 4646, 4645
4381, 4623, 4624, 4647, 4646
4382, 4624, 4625, 4648, 4647
4383, 4625, 4626, 4649, 4648
4384, 4626, 4627, 4650, 4649
4385, 4627, 4628, 4651, 4650
4386, 4628, 4629, 4652, 4651
4387, 4629, 4630, 4653, 4652
4388, 4630, 4631, 4654, 4653
4389, 4631, 4632, 4655, 4654
4390, 4632, 4633, 4656, 4655
4391, 4633, 4634, 4657, 4656
4392, 4634,  504,  505, 4657
4393,  561, 4635, 4658,  560
4394, 4635, 4636, 4659, 4658
4395, 4636, 4637, 4660, 4659
4396, 4637, 4638, 4661, 4660
4397, 4638, 4639, 4662, 4661
4398, 4639, 4640, 4663, 4662
4399, 4640, 4641, 4664, 4663
4400, 4641, 4642, 4665, 4664
4401, 4642, 4643, 4666, 4665
4402, 4643, 4644, 4667, 4666
4403, 4644, 4645, 4668, 4667
4404, 4645, 4646, 4669, 4668
4405, 4646, 4647, 4670, 4669
4406, 4647, 4648, 4671, 4670
4407, 4648, 4649, 4672, 4671
4408, 4649, 4650, 4673, 4672
4409, 4650, 4651, 4674, 4673
4410, 4651, 4652, 4675, 4674
4411, 4652, 4653, 4676, 4675
4412, 4653, 4654, 4677, 4676
4413, 4654, 4655, 4678, 4677
4414, 4655, 4656, 4679, 4678
4415, 4656, 4657, 4680, 4679
4416, 4657,  505,  506, 4680
4417,  560, 4658, 4681,  559
4418, 4658, 4659, 4682, 4681
4419, 4659, 4660, 4683, 4682
4420, 4660, 4661, 4684, 4683
4421, 4661, 4662, 4685, 4684
4422, 4662, 4663, 4686, 4685
4423, 4663, 4664, 4687, 4686
4424, 4664, 4665, 4688, 4687
4425, 4665, 4666, 4689, 4688
4426, 4666, 4667, 4690, 4689
4427, 4667, 4668, 4691, 4690
4428, 4668, 4669, 4692, 4691
4429, 4669, 4670, 4693, 4692
4430, 4670, 4671, 4694, 4693
4431, 4671, 4672, 4695, 4694
4432, 4672, 4673, 4696, 4695
4433, 4673, 4674, 4697, 4696
4434, 4674, 4675, 4698, 4697
4435, 4675, 4676, 4699, 4698
4436, 4676, 4677, 4700, 4699
4437, 4677, 4678, 4701, 4700
4438, 4678, 4679, 4702, 4701
4439, 4679, 4680, 4703, 4702
4440, 4680,  506,  507, 4703
4441,  559, 4681, 4704,  558
4442, 4681, 4682, 4705, 4704
4443, 4682, 4683, 4706, 4705
4444, 4683, 4684, 4707, 4706
4445, 4684, 4685, 4708, 4707
4446, 4685, 4686, 4709, 4708
4447, 4686, 4687, 4710, 4709
4448, 4687, 4688, 4711, 4710
4449, 4688, 4689, 4712, 4711
4450, 4689, 4690, 4713, 4712
4451, 4690, 4691, 4714, 4713
4452, 4691, 4692, 4715, 4714
4453, 4692, 4693, 4716, 4715
4454, 4693, 4694, 4717, 4716
4455, 4694, 4695, 4718, 4717
4456, 4695, 4696, 4719, 4718
4457, 4696, 4697, 4720, 4719
4458, 4697, 4698, 4721, 4720
4459, 4698, 4699, 4722, 4721
4460, 4699, 4700, 4723, 4722
4461, 4700, 4701, 4724, 4723
4462, 4701, 4702, 4725, 4724
4463, 4702, 4703, 4726, 4725
4464, 4703,  507,  508, 4726
4465,  558, 4704, 4727,  557
4466, 4704, 4705, 4728, 4727
4467, 4705, 4706, 4729, 4728
4468, 4706, 4707, 4730, 4729
4469, 4707, 4708, 4731, 4730
4470, 4708, 4709, 4732, 4731
4471, 4709, 4710, 4733, 4732
4472, 4710, 4711, 4734, 4733
4473, 4711, 4712, 4735, 4734
4474, 4712, 4713, 4736, 4735
4475, 4713, 4714, 4737, 4736
4476, 4714, 4715, 4738, 4737
4477, 4715, 4716, 4739, 4738
4478, 4716, 4717, 4740, 4739
4479, 4717, 4718, 4741, 4740
4480, 4718, 4719, 4742, 4741
4481, 4719, 4720, 4743, 4742
4482, 4720, 4721, 4744, 4743
4483, 4721, 4722, 4745, 4744
4484, 4722, 4723, 4746, 4745
4485, 4723, 4724, 4747, 4746
4486, 4724, 4725, 4748, 4747
4487, 4725, 4726, 4749, 4748
4488, 4726,  508,  509, 4749
4489,  557, 4727, 4750,  556
4490, 4727, 4728, 4751, 4750
4491, 4728, 4729, 4752, 4751
4492, 4729, 4730, 4753, 4752
4493, 4730, 4731, 4754, 4753
4494, 4731, 4732, 4755, 4754
4495, 4732, 4733, 4756, 4755
4496, 4733, 4734, 4757, 4756
4497, 4734, 4735, 4758, 4757
4498, 4735, 4736, 4759, 4758
4499, 4736, 4737, 4760, 4759
4500, 4737, 4738, 4761, 4760
4501, 4738, 4739, 4762, 4761
4502, 4739, 4740, 4763, 4762
4503, 4740, 4741, 4764, 4763
4504, 4741, 4742, 4765, 4764
4505, 4742, 4743, 4766, 4765
4506, 4743, 4744, 4767, 4766
4507, 4744, 4745, 4768, 4767
4508, 4745, 4746, 4769, 4768
4509, 4746, 4747, 4770, 4769
4510, 4747, 4748, 4771, 4770
4511, 4748, 4749, 4772, 4771
4512, 4749,  509,  510, 4772
4513,  556, 4750, 4773,  555
4514, 4750, 4751, 4774, 4773
4515, 4751, 4752, 4775, 4774
4516, 4752, 4753, 4776, 4775
4517, 4753, 4754, 4777, 4776
4518, 4754, 4755, 4778, 4777
4519, 4755, 4756, 4779, 4778
4520, 4756, 4757, 4780, 4779
4521, 4757, 4758, 4781, 4780
4522, 4758, 4759, 4782, 4781
4523, 4759, 4760, 4783, 4782
4524, 4760, 4761, 4784, 4783
4525, 4761, 4762, 4785, 4784
4526, 4762, 4763, 4786, 4785
4527, 4763, 4764, 4787, 4786
4528, 4764, 4765, 4788, 4787
4529, 4765, 4766, 4789, 4788
4530, 4766, 4767, 4790, 4789
4531, 4767, 4768, 4791, 4790
4532, 4768, 4769, 4792, 4791
4533, 4769, 4770, 4793, 4792
4534, 4770, 4771, 4794, 4793
4535, 4771, 4772, 4795, 4794
4536, 4772,  510,  511, 4795
4537,  555, 4773, 4796,  554
4538, 4773, 4774, 4797, 4796
4539, 4774, 4775, 4798, 4797
4540, 4775, 4776, 4799, 4798
4541, 4776, 4777, 4800, 4799
4542, 4777, 4778, 4801, 4800
4543, 4778, 4779, 4802, 4801
4544, 4779, 4780, 4803, 4802
4545, 4780, 4781, 4804, 4803
4546, 4781, 4782, 4805, 4804
4547, 4782, 4783, 4806, 4805
4548, 4783, 4784, 4807, 4806
4549, 4784, 4785, 4808, 4807
4550, 4785, 4786, 4809, 4808
4551, 4786, 4787, 4810, 4809
4552, 4787, 4788, 4811, 4810
4553, 4788, 4789, 4812, 4811
4554, 4789, 4790, 4813, 4812
4555, 4790, 4791, 4814, 4813
4556, 4791, 4792, 4815, 4814
4557, 4792, 4793, 4816, 4815
4558, 4793, 4794, 4817, 4816
4559, 4794, 4795, 4818, 4817
4560, 4795,  511,  512, 4818
4561,  554, 4796, 4819,  553
4562, 4796, 4797, 4820, 4819
4563, 4797, 4798, 4821, 4820
4564, 4798, 4799, 4822, 4821
4565, 4799, 4800, 4823, 4822
4566, 4800, 4801, 4824, 4823
4567, 4801, 4802, 4825, 4824
4568, 4802, 4803, 4826, 4825
4569, 4803, 4804, 4827, 4826
4570, 4804, 4805, 4828, 4827
4571, 4805, 4806, 4829, 4828
4572, 4806, 4807, 4830, 4829
4573, 4807, 4808, 4831, 4830
4574, 4808, 4809, 4832, 4831
4575, 4809, 4810, 4833, 4832
4576, 4810, 4811, 4834, 4833
4577, 4811, 4812, 4835, 4834
4578, 4812, 4813, 4836, 4835
4579, 4813, 4814, 4837, 4836
4580, 4814, 4815, 4838, 4837
4581, 4815, 4816, 4839, 4838
4582, 4816, 4817, 4840, 4839
4583, 4817, 4818, 4841, 4840
4584, 4818,  512,  513, 4841
4585,  553, 4819, 4842,  552
4586, 4819, 4820, 4843, 4842
4587, 4820, 4821, 4844, 4843
4588, 4821, 4822, 4845, 4844
4589, 4822, 4823, 4846, 4845
4590, 4823, 4824, 4847, 4846
4591, 4824, 4825, 4848, 4847
4592, 4825, 4826, 4849, 4848
4593, 4826, 4827, 4850, 4849
4594, 4827, 4828, 4851, 4850
4595, 4828, 4829, 4852, 4851
4596, 4829, 4830, 4853, 4852
4597, 4830, 4831, 4854, 4853
4598, 4831, 4832, 4855, 4854
4599, 4832, 4833, 4856, 4855
4600, 4833, 4834, 4857, 4856
4601, 4834, 4835, 4858, 4857
4602, 4835, 4836, 4859, 4858
4603, 4836, 4837, 4860, 4859
4604, 4837, 4838, 4861, 4860
4605, 4838, 4839, 4862, 4861
4606, 4839, 4840, 4863, 4862
4607, 4840, 4841, 4864, 4863
4608, 4841,  513,  514, 4864
4609,  552, 4842, 4865,  551
4610, 4842, 4843, 4866, 4865
4611, 4843, 4844, 4867, 4866
4612, 4844, 4845, 4868, 4867
4613, 4845, 4846, 4869, 4868
4614, 4846, 4847, 4870, 4869
4615, 4847, 4848, 4871, 4870
4616, 4848, 4849, 4872, 4871
4617, 4849, 4850, 4873, 4872
4618, 4850, 4851, 4874, 4873
4619, 4851, 4852, 4875, 4874
4620, 4852, 4853, 4876, 4875
4621, 4853, 4854, 4877, 4876
4622, 4854, 4855, 4878, 4877
4623, 4855, 4856, 4879, 4878
4624, 4856, 4857, 4880, 4879
4625, 4857, 4858, 4881, 4880
4626, 4858, 4859, 4882, 4881
4627, 4859, 4860, 4883, 4882
4628, 4860, 4861, 4884, 4883
4629, 4861, 4862, 4885, 4884
4630, 4862, 4863, 4886, 4885
4631, 4863, 4864, 4887, 4886
4632, 4864,  514,  515, 4887
4633,  551, 4865, 4888,  550
4634, 4865, 4866, 4889, 4888
4635, 4866, 4867, 4890, 4889
4636, 4867, 4868, 4891, 4890
4637, 4868, 4869, 4892, 4891
4638, 4869, 4870, 4893, 4892
4639, 4870, 4871, 4894, 4893
4640, 4871, 4872, 4895, 4894
4641, 4872, 4873, 4896, 4895
4642, 4873, 4874, 4897, 4896
4643, 4874, 4875, 4898, 4897
4644, 4875, 4876, 4899, 4898
4645, 4876, 4877, 4900, 4899
4646, 4877, 4878, 4901, 4900
4647, 4878, 4879, 4902, 4901
4648, 4879, 4880, 4903, 4902
4649, 4880, 4881, 4904, 4903
4650, 4881, 4882, 4905, 4904
4651, 4882, 4883, 4906, 4905
4652, 4883, 4884, 4907, 4906
4653, 4884, 4885, 4908, 4907
4654, 4885, 4886, 4909, 4908
4655, 4886, 4887, 4910, 4909
4656, 4887,  515,  516, 4910
4657,  550, 4888, 4911,  549
4658, 4888, 4889, 4912, 4911
4659, 4889, 4890, 4913, 4912
4660, 4890, 4891, 4914, 4913
4661, 4891, 4892, 4915, 4914
4662, 4892, 4893, 4916, 4915
4663, 4893, 4894, 4917, 4916
4664, 4894, 4895, 4918, 4917
4665, 4895, 4896, 4919, 4918
4666, 4896, 4897, 4920, 4919
4667, 4897, 4898, 4921, 4920
4668, 4898, 4899, 4922, 4921
4669, 4899, 4900, 4923, 4922
4670, 4900, 4901, 4924, 4923
4671, 4901, 4902, 4925, 4924
4672, 4902, 4903, 4926, 4925
4673, 4903, 4904, 4927, 4926
4674, 4904, 4905, 4928, 4927
4675, 4905, 4906, 4929, 4928
4676, 4906, 4907, 4930, 4929
4677, 4907, 4908, 4931, 4930
4678, 4908, 4909, 4932, 4931
4679, 4909, 4910, 4933, 4932
4680, 4910,  516,  517, 4933
4681,  549, 4911, 4934,  548
4682, 4911, 4912, 4935, 4934
4683, 4912, 4913, 4936, 4935
4684, 4913, 4914, 4937, 4936
4685, 4914, 4915, 4938, 4937
4686, 4915, 4916, 4939, 4938
4687, 4916, 4917, 4940, 4939
4688, 4917, 4918, 4941, 4940
4689, 4918, 4919, 4942, 4941
4690, 4919, 4920, 4943, 4942
4691, 4920, 4921, 4944, 4943
4692, 4921, 4922, 4945, 4944
4693, 4922, 4923, 4946, 4945
4694, 4923, 4924, 4947, 4946
4695, 4924, 4925, 4948, 4947
4696, 4925, 4926, 4949, 4948
4697, 4926, 4927, 4950, 4949
4698, 4927, 4928, 4951, 4950
4699, 4928, 4929, 4952, 4951
4700, 4929, 4930, 4953, 4952
4701, 4930, 4931, 4954, 4953
4702, 4931, 4932, 4955, 4954
4703, 4932, 4933, 4956, 4955
4704, 4933,  517,  518, 4956
4705,  548, 4934, 4957,  547
4706, 4934, 4935, 4958, 4957
4707, 4935, 4936, 4959, 4958
4708, 4936, 4937, 4960, 4959
4709, 4937, 4938, 4961, 4960
4710, 4938, 4939, 4962, 4961
4711, 4939, 4940, 4963, 4962
4712, 4940, 4941, 4964, 4963
4713, 4941, 4942, 4965, 4964
4714, 4942, 4943, 4966, 4965
4715, 4943, 4944, 4967, 4966
4716, 4944, 4945, 4968, 4967
4717, 4945, 4946, 4969, 4968
4718, 4946, 4947, 4970, 4969
4719, 4947, 4948, 4971, 4970
4720, 4948, 4949, 4972, 4971
4721, 4949, 4950, 4973, 4972
4722, 4950, 4951, 4974, 4973
4723, 4951, 4952, 4975, 4974
4724, 4952, 4953, 4976, 4975
4725, 4953, 4954, 4977, 4976
4726, 4954, 4955, 4978, 4977
4727, 4955, 4956, 4979, 4978
4728, 4956,  518,  519, 4979
4729,  547, 4957, 4980,  546
4730, 4957, 4958, 4981, 4980
4731, 4958, 4959, 4982, 4981
4732, 4959, 4960, 4983, 4982
4733, 4960, 4961, 4984, 4983
4734, 4961, 4962, 4985, 4984
4735, 4962, 4963, 4986, 4985
4736, 4963, 4964, 4987, 4986
4737, 4964, 4965, 4988, 4987
4738, 4965, 4966, 4989, 4988
4739, 4966, 4967, 4990, 4989
4740, 4967, 4968, 4991, 4990
4741, 4968, 4969, 4992, 4991
4742, 4969, 4970, 4993, 4992
4743, 4970, 4971, 4994, 4993
4744, 4971, 4972, 4995, 4994
4745, 4972, 4973, 4996, 4995
4746, 4973, 4974, 4997, 4996
4747, 4974, 4975, 4998, 4997
4748, 4975, 4976, 4999, 4998
4749, 4976, 4977, 5000, 4999
4750, 4977, 4978, 5001, 5000
4751, 4978, 4979, 5002, 5001
4752, 4979,  519,  520, 5002
4753,  546, 4980, 5003,  545
4754, 4980, 4981, 5004, 5003
4755, 4981, 4982, 5005, 5004
4756, 4982, 4983, 5006, 5005
4757, 4983, 4984, 5007, 5006
4758, 4984, 4985, 5008, 5007
4759, 4985, 4986, 5009, 5008
4760, 4986, 4987, 5010, 5009
4761, 4987, 4988, 5011, 5010
4762, 4988, 4989, 5012, 5011
4763, 4989, 4990, 5013, 5012
4764, 4990, 4991, 5014, 5013
4765, 4991, 4992, 5015, 5014
4766, 4992, 4993, 5016, 5015
4767, 4993, 4994, 5017, 5016
4768, 4994, 4995, 5018, 5017
4769, 4995, 4996, 5019, 5018
4770, 4996, 4997, 5020, 5019
4771, 4997, 4998, 5021, 5020
4772, 4998, 4999, 5022, 5021
4773, 4999, 5000, 5023, 5022
4774, 5000, 5001, 5024, 5023
4775, 5001, 5002, 5025, 5024
4776, 5002,  520,  521, 5025
4777,  545, 5003,  544,   14
4778, 5003, 5004,  543,  544
4779, 5004, 5005,  542,  543
4780, 5005, 5006,  541,  542
4781, 5006, 5007,  540,  541
4782, 5007, 5008,  539,  540
4783, 5008, 5009,  538,  539
4784, 5009, 5010,  537,  538
4785, 5010, 5011,  536,  537
4786, 5011, 5012,  535,  536
4787, 5012, 5013,  534,  535
4788, 5013, 5014,  533,  534
4789, 5014, 5015,  532,  533
4790, 5015, 5016,  531,  532
4791, 5016, 5017,  530,  531
4792, 5017, 5018,  529,  530
4793, 5018, 5019,  528,  529
4794, 5019, 5020,  527,  528
4795, 5020, 5021,  526,  527
4796, 5021, 5022,  525,  526
4797, 5022, 5023,  524,  525
4798, 5023, 5024,  523,  524
4799, 5024, 5025,  522,  523
4800, 5025,  521,   13,  522
*Nset, nset=_PickedSet12, internal, generate
    1,  5025,     1
*Elset, elset=_PickedSet12, internal, generate
    1,  4800,     1
*Elset, elset=_Front_S3, internal, generate
 4777,  4800,     1
*Surface, type=ELEMENT, name=Front
_Front_S3, S3
*Elset, elset=_Back_S3, internal, generate
 4297,  4320,     1
*Surface, type=ELEMENT, name=Back
_Back_S3, S3
** Section: Sec_ActiveLayer
*Solid Section, elset=_PickedSet12, material=ActiveLayer_DPC, controls=FilmControls
,
*End Part
**  
*Part, name=LowerRollerRigid
*End Part
**  
*Part, name=UpperRollerRigid
*End Part
**  
**
** ASSEMBLY
**
*Assembly, name=Assembly
**  
*Instance, name=ActiveLayer-1, part=ActiveLayer
*End Instance
**  
*Instance, name=UpperRoller-1, part=UpperRollerRigid
          0.,       50.155,           0.
*Node
      1,           0.,           0.,           0.
*Nset, nset=UpperRoller-1-RefPt_, internal
1, 
*Surface, type=SEGMENTS, name=RollSurface
START,           4., -49.8397431775084
 LINE, 3.93333333333333, -49.8450487901144
 LINE, 3.86666666666667, -49.850264682235
 LINE,          3.8, -49.85539088203
 LINE, 3.73333333333333, -49.8604274171634
 LINE, 3.66666666666667, -49.8653743148044
 LINE,          3.6, -49.8702316016278
 LINE, 3.53333333333333, -49.8749993038151
 LINE, 3.46666666666667, -49.8796774470548
 LINE,          3.4, -49.8842660565433
 LINE, 3.33333333333333, -49.8887651569859
 LINE, 3.26666666666667, -49.8931747725968
 LINE,          3.2, -49.8974949271003
 LINE, 3.13333333333333, -49.9017256437312
 LINE, 3.06666666666667, -49.9058669452356
 LINE,           3., -49.9099188538711
 LINE, 2.93333333333333, -49.9138813914081
 LINE, 2.86666666666667, -49.9177545791297
 LINE,          2.8, -49.9215384378326
 LINE, 2.73333333333333, -49.9252329878278
 LINE, 2.66666666666667, -49.9288382489407
 LINE,          2.6, -49.9323542405122
 LINE, 2.53333333333333, -49.9357809813987
 LINE, 2.46666666666667, -49.9391184899729
 LINE,          2.4, -49.9423667841243
 LINE, 2.33333333333333, -49.9455258812594
 LINE, 2.26666666666667, -49.9485957983027
 LINE,          2.2, -49.9515765516965
 LINE, 2.13333333333333, -49.954468157402
 LINE, 2.06666666666667, -49.9572706308991
 LINE,           2., -49.9599839871872
 LINE, 1.93333333333333, -49.9626082407856
 LINE, 1.86666666666667, -49.9651434057339
 LINE,          1.8, -49.967589495592
 LINE, 1.73333333333333, -49.969946523441
 LINE, 1.66666666666667, -49.9722145018832
 LINE,          1.6, -49.9743934430424
 LINE, 1.53333333333333, -49.9764833585646
 LINE, 1.46666666666667, -49.978484259618
 LINE,          1.4, -49.9803961568934
 LINE, 1.33333333333333, -49.9822190606042
 LINE, 1.26666666666667, -49.9839529804872
 LINE,          1.2, -49.9855979258026
 LINE, 1.13333333333333, -49.9871539053341
 LINE, 1.06666666666667, -49.9886209273893
 LINE,           1., -49.9899989998
 LINE, 0.933333333333334, -49.9912881299221
 LINE, 0.866666666666666, -49.9924883246362
 LINE,          0.8, -49.9935995903476
 LINE, 0.733333333333333, -49.9946219329862
 LINE, 0.666666666666667, -49.9955553580071
 LINE,          0.6, -49.9963998703907
 LINE, 0.533333333333333, -49.9971554746423
 LINE, 0.466666666666667, -49.997822174793
 LINE,          0.4, -49.9983999743992
 LINE, 0.333333333333333, -49.9988888765429
 LINE, 0.266666666666667, -49.999288883832
 LINE,          0.2, -49.9995999984
 LINE, 0.133333333333334, -49.9998222219062
 LINE, 0.0666666666666664, -49.9999555555358
 LINE,           0.,         -50.
 LINE, -0.0666666666666669, -49.9999555555358
 LINE, -0.133333333333333, -49.9998222219062
 LINE,         -0.2, -49.9995999984
 LINE, -0.266666666666667, -49.999288883832
 LINE, -0.333333333333333, -49.9988888765429
 LINE,         -0.4, -49.9983999743992
 LINE, -0.466666666666667, -49.997822174793
 LINE, -0.533333333333333, -49.9971554746423
 LINE,         -0.6, -49.9963998703907
 LINE, -0.666666666666667, -49.9955553580071
 LINE, -0.733333333333333, -49.9946219329862
 LINE,         -0.8, -49.9935995903476
 LINE, -0.866666666666667, -49.9924883246362
 LINE, -0.933333333333333, -49.9912881299221
 LINE,          -1., -49.9899989998
 LINE, -1.06666666666667, -49.9886209273893
 LINE, -1.13333333333333, -49.9871539053341
 LINE,         -1.2, -49.9855979258026
 LINE, -1.26666666666667, -49.9839529804872
 LINE, -1.33333333333333, -49.9822190606042
 LINE,         -1.4, -49.9803961568934
 LINE, -1.46666666666667, -49.978484259618
 LINE, -1.53333333333333, -49.9764833585646
 LINE,         -1.6, -49.9743934430424
 LINE, -1.66666666666667, -49.9722145018832
 LINE, -1.73333333333333, -49.969946523441
 LINE,         -1.8, -49.967589495592
 LINE, -1.86666666666667, -49.9651434057339
 LINE, -1.93333333333333, -49.9626082407856
 LINE,          -2., -49.9599839871872
 LINE, -2.06666666666667, -49.9572706308991
 LINE, -2.13333333333333, -49.954468157402
 LINE,         -2.2, -49.9515765516965
 LINE, -2.26666666666667, -49.9485957983027
 LINE, -2.33333333333333, -49.9455258812594
 LINE,         -2.4, -49.9423667841243
 LINE, -2.46666666666667, -49.9391184899729
 LINE, -2.53333333333333, -49.9357809813987
 LINE,         -2.6, -49.9323542405122
 LINE, -2.66666666666667, -49.9288382489407
 LINE, -2.73333333333333, -49.9252329878278
 LINE,         -2.8, -49.9215384378326
 LINE, -2.86666666666667, -49.9177545791297
 LINE, -2.93333333333333, -49.9138813914081
 LINE,          -3., -49.9099188538711
 LINE, -3.06666666666667, -49.9058669452356
 LINE, -3.13333333333333, -49.9017256437312
 LINE,         -3.2, -49.8974949271003
 LINE, -3.26666666666667, -49.8931747725968
 LINE, -3.33333333333333, -49.8887651569859
 LINE,         -3.4, -49.8842660565433
 LINE, -3.46666666666667, -49.8796774470548
 LINE, -3.53333333333333, -49.8749993038151
 LINE,         -3.6, -49.8702316016278
 LINE, -3.66666666666667, -49.8653743148044
 LINE, -3.73333333333333, -49.8604274171634
 LINE,         -3.8, -49.85539088203
 LINE, -3.86666666666667, -49.850264682235
 LINE, -3.93333333333333, -49.8450487901144
 LINE,          -4., -49.8397431775084
*Rigid Body, ref node=UpperRoller-1-RefPt_, analytical surface=RollSurface
*End Instance
**  
*Instance, name=LowerRoller-1, part=LowerRollerRigid
          0.,      -50.005,           0.
*Node
      1,           0.,           0.,           0.
*Nset, nset=LowerRoller-1-RefPt_, internal
1, 
*Surface, type=SEGMENTS, name=RollSurface
START,          -4., 49.8397431775084
 LINE, -3.93333333333333, 49.8450487901144
 LINE, -3.86666666666667, 49.850264682235
 LINE,         -3.8, 49.85539088203
 LINE, -3.73333333333333, 49.8604274171634
 LINE, -3.66666666666667, 49.8653743148044
 LINE,         -3.6, 49.8702316016278
 LINE, -3.53333333333333, 49.8749993038151
 LINE, -3.46666666666667, 49.8796774470548
 LINE,         -3.4, 49.8842660565433
 LINE, -3.33333333333333, 49.8887651569859
 LINE, -3.26666666666667, 49.8931747725968
 LINE,         -3.2, 49.8974949271003
 LINE, -3.13333333333333, 49.9017256437312
 LINE, -3.06666666666667, 49.9058669452356
 LINE,          -3., 49.9099188538711
 LINE, -2.93333333333333, 49.9138813914081
 LINE, -2.86666666666667, 49.9177545791297
 LINE,         -2.8, 49.9215384378326
 LINE, -2.73333333333333, 49.9252329878278
 LINE, -2.66666666666667, 49.9288382489407
 LINE,         -2.6, 49.9323542405122
 LINE, -2.53333333333333, 49.9357809813987
 LINE, -2.46666666666667, 49.9391184899729
 LINE,         -2.4, 49.9423667841243
 LINE, -2.33333333333333, 49.9455258812594
 LINE, -2.26666666666667, 49.9485957983027
 LINE,         -2.2, 49.9515765516965
 LINE, -2.13333333333333, 49.954468157402
 LINE, -2.06666666666667, 49.9572706308991
 LINE,          -2., 49.9599839871872
 LINE, -1.93333333333333, 49.9626082407856
 LINE, -1.86666666666667, 49.9651434057339
 LINE,         -1.8, 49.967589495592
 LINE, -1.73333333333333, 49.969946523441
 LINE, -1.66666666666667, 49.9722145018832
 LINE,         -1.6, 49.9743934430424
 LINE, -1.53333333333333, 49.9764833585646
 LINE, -1.46666666666667, 49.978484259618
 LINE,         -1.4, 49.9803961568934
 LINE, -1.33333333333333, 49.9822190606042
 LINE, -1.26666666666667, 49.9839529804872
 LINE,         -1.2, 49.9855979258026
 LINE, -1.13333333333333, 49.9871539053341
 LINE, -1.06666666666667, 49.9886209273893
 LINE,          -1., 49.9899989998
 LINE, -0.933333333333333, 49.9912881299221
 LINE, -0.866666666666667, 49.9924883246362
 LINE,         -0.8, 49.9935995903476
 LINE, -0.733333333333333, 49.9946219329862
 LINE, -0.666666666666667, 49.9955553580071
 LINE,         -0.6, 49.9963998703907
 LINE, -0.533333333333333, 49.9971554746423
 LINE, -0.466666666666667, 49.997822174793
 LINE,         -0.4, 49.9983999743992
 LINE, -0.333333333333333, 49.9988888765429
 LINE, -0.266666666666667, 49.999288883832
 LINE,         -0.2, 49.9995999984
 LINE, -0.133333333333333, 49.9998222219062
 LINE, -0.0666666666666669, 49.9999555555358
 LINE,           0.,          50.
 LINE, 0.0666666666666664, 49.9999555555358
 LINE, 0.133333333333334, 49.9998222219062
 LINE,          0.2, 49.9995999984
 LINE, 0.266666666666667, 49.999288883832
 LINE, 0.333333333333333, 49.9988888765429
 LINE,          0.4, 49.9983999743992
 LINE, 0.466666666666667, 49.997822174793
 LINE, 0.533333333333333, 49.9971554746423
 LINE,          0.6, 49.9963998703907
 LINE, 0.666666666666667, 49.9955553580071
 LINE, 0.733333333333333, 49.9946219329862
 LINE,          0.8, 49.9935995903476
 LINE, 0.866666666666666, 49.9924883246362
 LINE, 0.933333333333334, 49.9912881299221
 LINE,           1., 49.9899989998
 LINE, 1.06666666666667, 49.9886209273893
 LINE, 1.13333333333333, 49.9871539053341
 LINE,          1.2, 49.9855979258026
 LINE, 1.26666666666667, 49.9839529804872
 LINE, 1.33333333333333, 49.9822190606042
 LINE,          1.4, 49.9803961568934
 LINE, 1.46666666666667, 49.978484259618
 LINE, 1.53333333333333, 49.9764833585646
 LINE,          1.6, 49.9743934430424
 LINE, 1.66666666666667, 49.9722145018832
 LINE, 1.73333333333333, 49.969946523441
 LINE,          1.8, 49.967589495592
 LINE, 1.86666666666667, 49.9651434057339
 LINE, 1.93333333333333, 49.9626082407856
 LINE,           2., 49.9599839871872
 LINE, 2.06666666666667, 49.9572706308991
 LINE, 2.13333333333333, 49.954468157402
 LINE,          2.2, 49.9515765516965
 LINE, 2.26666666666667, 49.9485957983027
 LINE, 2.33333333333333, 49.9455258812594
 LINE,          2.4, 49.9423667841243
 LINE, 2.46666666666667, 49.9391184899729
 LINE, 2.53333333333333, 49.9357809813987
 LINE,          2.6, 49.9323542405122
 LINE, 2.66666666666667, 49.9288382489407
 LINE, 2.73333333333333, 49.9252329878278
 LINE,          2.8, 49.9215384378326
 LINE, 2.86666666666667, 49.9177545791297
 LINE, 2.93333333333333, 49.9138813914081
 LINE,           3., 49.9099188538711
 LINE, 3.06666666666667, 49.9058669452356
 LINE, 3.13333333333333, 49.9017256437312
 LINE,          3.2, 49.8974949271003
 LINE, 3.26666666666667, 49.8931747725968
 LINE, 3.33333333333333, 49.8887651569859
 LINE,          3.4, 49.8842660565433
 LINE, 3.46666666666667, 49.8796774470548
 LINE, 3.53333333333333, 49.8749993038151
 LINE,          3.6, 49.8702316016278
 LINE, 3.66666666666667, 49.8653743148044
 LINE, 3.73333333333333, 49.8604274171634
 LINE,          3.8, 49.85539088203
 LINE, 3.86666666666667, 49.850264682235
 LINE, 3.93333333333333, 49.8450487901144
 LINE,           4., 49.8397431775084
*Rigid Body, ref node=LowerRoller-1-RefPt_, analytical surface=RollSurface
*End Instance
**  
*Nset, nset=Bottom_Nodes, instance=ActiveLayer-1
   1,   4,   6,   8,  10,  12,  13, 100, 101, 102, 103, 104, 105, 106, 107, 108
 109, 110, 111, 112, 113, 114, 115, 116, 117, 118, 119, 120, 121, 122, 123, 124
 125, 126, 127, 128, 129, 130, 131, 132, 133, 134, 135, 136, 137, 138, 201, 202
 203, 204, 205, 206, 207, 208, 209, 210, 211, 212, 213, 214, 215, 216, 217, 218
 219, 220, 221, 222, 223, 224, 225, 226, 227, 228, 229, 230, 231, 232, 233, 234
 235, 236, 237, 238, 239, 302, 303, 304, 305, 306, 307, 308, 309, 310, 311, 312
 313, 314, 315, 316, 317, 318, 319, 320, 321, 322, 323, 324, 325, 326, 327, 328
 329, 330, 331, 332, 333, 334, 335, 336, 337, 338, 339, 340, 403, 404, 405, 406
 407, 408, 409, 410, 411, 412, 413, 414, 415, 416, 417, 418, 419, 420, 421, 422
 423, 424, 425, 426, 427, 428, 429, 430, 431, 432, 433, 434, 435, 436, 437, 438
 439, 440, 441, 484, 485, 486, 487, 488, 489, 490, 491, 492, 493, 494, 495, 496
 497, 498, 499, 500, 501, 502, 503, 504, 505, 506, 507, 508, 509, 510, 511, 512
 513, 514, 515, 516, 517, 518, 519, 520, 521
*Nset, nset=RP_LowerRoller, instance=LowerRoller-1
 1,
*Nset, nset=RP_UpperRoller, instance=UpperRoller-1
 1,
*Nset, nset=Sheet_All, instance=ActiveLayer-1, generate
    1,  5025,     1
*Elset, elset=Sheet_All, instance=ActiveLayer-1, generate
    1,  4800,     1
*Nset, nset=Sheet_Back_Nodes, instance=ActiveLayer-1
  11,  12, 461, 462, 463, 464, 465, 466, 467, 468, 469, 470, 471, 472, 473, 474
 475, 476, 477, 478, 479, 480, 481, 482, 483
*Nset, nset=Sheet_Front_Nodes, instance=ActiveLayer-1
  13,  14, 522, 523, 524, 525, 526, 527, 528, 529, 530, 531, 532, 533, 534, 535
 536, 537, 538, 539, 540, 541, 542, 543, 544
*Nset, nset=Top_Nodes, instance=ActiveLayer-1
   2,   3,   5,   7,   9,  11,  14,  38,  39,  40,  41,  42,  43,  44,  45,  46
  47,  48,  49,  50,  51,  52,  53,  54,  55,  56,  57,  58,  59,  60,  61,  62
  63,  64,  65,  66,  67,  68,  69,  70,  71,  72,  73,  74,  75,  76, 139, 140
 141, 142, 143, 144, 145, 146, 147, 148, 149, 150, 151, 152, 153, 154, 155, 156
 157, 158, 159, 160, 161, 162, 163, 164, 165, 166, 167, 168, 169, 170, 171, 172
 173, 174, 175, 176, 177, 240, 241, 242, 243, 244, 245, 246, 247, 248, 249, 250
 251, 252, 253, 254, 255, 256, 257, 258, 259, 260, 261, 262, 263, 264, 265, 266
 267, 268, 269, 270, 271, 272, 273, 274, 275, 276, 277, 278, 341, 342, 343, 344
 345, 346, 347, 348, 349, 350, 351, 352, 353, 354, 355, 356, 357, 358, 359, 360
 361, 362, 363, 364, 365, 366, 367, 368, 369, 370, 371, 372, 373, 374, 375, 376
 377, 378, 379, 442, 443, 444, 445, 446, 447, 448, 449, 450, 451, 452, 453, 454
 455, 456, 457, 458, 459, 460, 545, 546, 547, 548, 549, 550, 551, 552, 553, 554
 555, 556, 557, 558, 559, 560, 561, 562, 563
*Elset, elset=_Sheet_Back_S3, internal, instance=ActiveLayer-1, generate
 4297,  4320,     1
*Surface, type=ELEMENT, name=Sheet_Back
_Sheet_Back_S3, S3
*Elset, elset=_Sheet_Bottom_S4, internal, instance=ActiveLayer-1, generate
    1,  4297,    24
*Elset, elset=_Sheet_Bottom_S2, internal, instance=ActiveLayer-1, generate
 4344,  4800,    24
*Surface, type=ELEMENT, name=Sheet_Bottom
_Sheet_Bottom_S4, S4
_Sheet_Bottom_S2, S2
*Elset, elset=_Sheet_Front_S3, internal, instance=ActiveLayer-1, generate
 4777,  4800,     1
*Surface, type=ELEMENT, name=Sheet_Front
_Sheet_Front_S3, S3
*Elset, elset=_Sheet_Top_S2, internal, instance=ActiveLayer-1, generate
   24,  4320,    24
*Elset, elset=_Sheet_Top_S4, internal, instance=ActiveLayer-1, generate
 4321,  4777,    24
*Surface, type=ELEMENT, name=Sheet_Top
_Sheet_Top_S2, S2
_Sheet_Top_S4, S4
*End Assembly
*Amplitude, name=Amp_Clamp_Drop, time=TOTAL TIME, definition=SMOOTH STEP
             0.,              0.,             0.2,              1.,            0.64,              1.
*Amplitude, name=Amp_Rolling_Spin, definition=SMOOTH STEP
             0.,              0.,            0.05,              1.,            0.42,              1.
*Amplitude, name=Amp_Spin_Total, time=TOTAL TIME, definition=SMOOTH STEP
             0.,              0.,            0.05,              1.,            0.64,              1.
** 
** MATERIALS
** 
*Material, name=ActiveLayer_DPC
*Cap Plasticity
 0.0032,    5.,   0.8, 0.048,  0.02,    1.
*Cap Hardening
  0.048,   0.
 0.0496, 0.05
 0.0528,  0.1
 0.0576, 0.15
  0.064, 0.18
  0.072,  0.2
  0.088, 0.22
  0.112, 0.24
  0.152, 0.26
  0.216, 0.28
  0.312,  0.3
  0.384, 0.31
   0.48, 0.32
  0.592, 0.33
*Density
 2.55e-09,
*Elastic
6500., 0.01
** 
** INTERACTION PROPERTIES
** 
*Surface Interaction, name=Roller_Film_mu0p1
*Friction
 0.1,
*Surface Behavior, pressure-overclosure=HARD
** 
** BOUNDARY CONDITIONS
** 
** Name: BC_Back_Guide_Y Type: 位移/转角
*Boundary
Sheet_Back_Nodes, 2, 2
** Name: BC_Front_Guide_Y Type: 位移/转角
*Boundary
Sheet_Front_Nodes, 2, 2
** Name: BC_Lower_RP_Support Type: 位移/转角
*Boundary
RP_LowerRoller, 1, 1
RP_LowerRoller, 2, 2
** Name: BC_Upper_RP_LateralSupport Type: 位移/转角
*Boundary
RP_UpperRoller, 1, 1
** ----------------------------------------------------------------
** 
** STEP: Clamp_Down
** 
*Step, name=Clamp_Down, nlgeom=YES
*Dynamic, Explicit
, 0.2
*DIAGNOSTICS, CUTOFF RATIO=1000.
*Bulk Viscosity
0.12, 1.2
** Mass Scaling: Semi-Automatic
**               Whole Model
*Fixed Mass Scaling, dt=1e-06, type=below min
** 
** BOUNDARY CONDITIONS
** 
** Name: BC_Lower_Rotation Type: 速度/角速度
*Boundary, amplitude=Amp_Spin_Total, type=VELOCITY
RP_LowerRoller, 6, 6, -0.166667
** Name: BC_Sheet_Feed_X Type: 速度/角速度
*Boundary, amplitude=Amp_Spin_Total, type=VELOCITY
Sheet_All, 1, 1, 13.3333
** Name: BC_Upper_RP_Drop Type: 位移/转角
*Boundary, amplitude=Amp_Clamp_Drop
RP_UpperRoller, 2, 2, -0.025
** Name: BC_Upper_Rotation Type: 速度/角速度
*Boundary, amplitude=Amp_Spin_Total, type=VELOCITY
RP_UpperRoller, 6, 6, 0.266667
** 
** INTERACTIONS
** 
** Interaction: BottomRoller_to_Film
*Contact Pair, op=ADD, interaction=Roller_Film_mu0p1, mechanical constraint=KINEMATIC, cpset=BottomRoller_to_Film
LowerRoller-1.RollSurface, Sheet_Bottom
** Interaction: TopRoller_to_Film
*Contact Pair, op=ADD, interaction=Roller_Film_mu0p1, mechanical constraint=KINEMATIC, cpset=TopRoller_to_Film
UpperRoller-1.RollSurface, Sheet_Top
** 
** OUTPUT REQUESTS
** 
*Restart, write, number interval=1, time marks=NO
** 
** FIELD OUTPUT: F_Sheet
** 
*Output, field, number interval=120
*Node Output, nset=Sheet_All
A, U, V
*Element Output, elset=Sheet_All, directions=YES
LE, PE, PEEQ, S
*Contact Output, variable=PRESELECT
** 
** HISTORY OUTPUT: H-Output-1
** 
*Output, history, variable=PRESELECT
** 
** HISTORY OUTPUT: H_Energy
** 
*Output, history, time interval=0.0004
*Energy Output
ALLAE, ALLIE, ALLKE, ALLMW, ALLPD, ALLSE, ALLWK
** 
** HISTORY OUTPUT: H_LowerRoller_RP
** 
*Node Output, nset=RP_LowerRoller
RF1, RF2, RM3, U2, UR3, VR3
** 
** HISTORY OUTPUT: H_UpperRoller_RP
** 
*Node Output, nset=RP_UpperRoller
RF1, RF2, RM3, U2, UR3, VR3
*End Step
** ----------------------------------------------------------------
** 
** STEP: Hold_Clamp
** 
*Step, name=Hold_Clamp, nlgeom=YES
*Dynamic, Explicit
, 0.02
*DIAGNOSTICS, CUTOFF RATIO=1000.
*Bulk Viscosity
0.12, 1.2
** 
** OUTPUT REQUESTS
** 
*Restart, write, number interval=1, time marks=NO
** 
** FIELD OUTPUT: F_Sheet
** 
*Output, field, number interval=120
*Node Output, nset=Sheet_All
A, U, V
*Element Output, elset=Sheet_All, directions=YES
LE, PE, PEEQ, S
*Contact Output, variable=PRESELECT
** 
** HISTORY OUTPUT: H-Output-1
** 
*Output, history, variable=PRESELECT
** 
** HISTORY OUTPUT: H_Energy
** 
*Output, history, time interval=4e-05
*Energy Output
ALLAE, ALLIE, ALLKE, ALLMW, ALLPD, ALLSE, ALLWK
** 
** HISTORY OUTPUT: H_LowerRoller_RP
** 
*Node Output, nset=RP_LowerRoller
RF1, RF2, RM3, U2, UR3, VR3
** 
** HISTORY OUTPUT: H_UpperRoller_RP
** 
*Node Output, nset=RP_UpperRoller
RF1, RF2, RM3, U2, UR3, VR3
*End Step
** ----------------------------------------------------------------
** 
** STEP: Rolling
** 
*Step, name=Rolling, nlgeom=YES
*Dynamic, Explicit
, 0.42
*DIAGNOSTICS, CUTOFF RATIO=1000.
*Bulk Viscosity
0.12, 1.2
** 
** OUTPUT REQUESTS
** 
*Restart, write, number interval=1, time marks=NO
** 
** FIELD OUTPUT: F_Sheet
** 
*Output, field, number interval=120
*Node Output, nset=Sheet_All
A, U, V
*Element Output, elset=Sheet_All, directions=YES
LE, PE, PEEQ, S
*Contact Output, variable=PRESELECT
** 
** HISTORY OUTPUT: H-Output-1
** 
*Output, history, variable=PRESELECT
** 
** HISTORY OUTPUT: H_Energy
** 
*Output, history, time interval=0.00084
*Energy Output
ALLAE, ALLIE, ALLKE, ALLMW, ALLPD, ALLSE, ALLWK
** 
** HISTORY OUTPUT: H_LowerRoller_RP
** 
*Node Output, nset=RP_LowerRoller
RF1, RF2, RM3, U2, UR3, VR3
** 
** HISTORY OUTPUT: H_UpperRoller_RP
** 
*Node Output, nset=RP_UpperRoller
RF1, RF2, RM3, U2, UR3, VR3
*End Step
