*Heading
 Two-layer active-layer/current-collector compression validation
** Job name: Yang_Macro_TwoLayerElectrode_Compression Model name: Yang_Macro_TwoLayerElectrode_Compression
** Generated by: Abaqus/CAE 2025
*Preprint, echo=NO, model=NO, history=NO, contact=NO
**
** PARTS
**
*Part, name=ActiveLayer
*Node
      1,          0.5,  0.075000003,           1.
      2,          0.5, 0.0483999997,           1.
      3,          0.5, 0.0218000002,           1.
      4,          0.5, -0.00480000023,           1.
      5,          0.5, -0.0313999988,           1.
      6,          0.5, -0.0579999983,           1.
      7,          0.5,  0.075000003,  0.899999976
      8,          0.5, 0.0483999997,  0.899999976
      9,          0.5, 0.0218000002,  0.899999976
     10,          0.5, -0.00480000023,  0.899999976
     11,          0.5, -0.0313999988,  0.899999976
     12,          0.5, -0.0579999983,  0.899999976
     13,          0.5,  0.075000003,  0.800000012
     14,          0.5, 0.0483999997,  0.800000012
     15,          0.5, 0.0218000002,  0.800000012
     16,          0.5, -0.00480000023,  0.800000012
     17,          0.5, -0.0313999988,  0.800000012
     18,          0.5, -0.0579999983,  0.800000012
     19,          0.5,  0.075000003,  0.699999988
     20,          0.5, 0.0483999997,  0.699999988
     21,          0.5, 0.0218000002,  0.699999988
     22,          0.5, -0.00480000023,  0.699999988
     23,          0.5, -0.0313999988,  0.699999988
     24,          0.5, -0.0579999983,  0.699999988
     25,          0.5,  0.075000003,  0.600000024
     26,          0.5, 0.0483999997,  0.600000024
     27,          0.5, 0.0218000002,  0.600000024
     28,          0.5, -0.00480000023,  0.600000024
     29,          0.5, -0.0313999988,  0.600000024
     30,          0.5, -0.0579999983,  0.600000024
     31,          0.5,  0.075000003,          0.5
     32,          0.5, 0.0483999997,          0.5
     33,          0.5, 0.0218000002,          0.5
     34,          0.5, -0.00480000023,          0.5
     35,          0.5, -0.0313999988,          0.5
     36,          0.5, -0.0579999983,          0.5
     37,          0.5,  0.075000003,  0.400000006
     38,          0.5, 0.0483999997,  0.400000006
     39,          0.5, 0.0218000002,  0.400000006
     40,          0.5, -0.00480000023,  0.400000006
     41,          0.5, -0.0313999988,  0.400000006
     42,          0.5, -0.0579999983,  0.400000006
     43,          0.5,  0.075000003,  0.300000012
     44,          0.5, 0.0483999997,  0.300000012
     45,          0.5, 0.0218000002,  0.300000012
     46,          0.5, -0.00480000023,  0.300000012
     47,          0.5, -0.0313999988,  0.300000012
     48,          0.5, -0.0579999983,  0.300000012
     49,          0.5,  0.075000003,  0.200000003
     50,          0.5, 0.0483999997,  0.200000003
     51,          0.5, 0.0218000002,  0.200000003
     52,          0.5, -0.00480000023,  0.200000003
     53,          0.5, -0.0313999988,  0.200000003
     54,          0.5, -0.0579999983,  0.200000003
     55,          0.5,  0.075000003,  0.100000001
     56,          0.5, 0.0483999997,  0.100000001
     57,          0.5, 0.0218000002,  0.100000001
     58,          0.5, -0.00480000023,  0.100000001
     59,          0.5, -0.0313999988,  0.100000001
     60,          0.5, -0.0579999983,  0.100000001
     61,          0.5,  0.075000003,           0.
     62,          0.5, 0.0483999997,           0.
     63,          0.5, 0.0218000002,           0.
     64,          0.5, -0.00480000023,           0.
     65,          0.5, -0.0313999988,           0.
     66,          0.5, -0.0579999983,           0.
     67,  0.400000006,  0.075000003,           1.
     68,  0.400000006, 0.0483999997,           1.
     69,  0.400000006, 0.0218000002,           1.
     70,  0.400000006, -0.00480000023,           1.
     71,  0.400000006, -0.0313999988,           1.
     72,  0.400000006, -0.0579999983,           1.
     73,  0.400000006,  0.075000003,  0.899999976
     74,  0.400000006, 0.0483999997,  0.899999976
     75,  0.400000006, 0.0218000002,  0.899999976
     76,  0.400000006, -0.00480000023,  0.899999976
     77,  0.400000006, -0.0313999988,  0.899999976
     78,  0.400000006, -0.0579999983,  0.899999976
     79,  0.400000006,  0.075000003,  0.800000012
     80,  0.400000006, 0.0483999997,  0.800000012
     81,  0.400000006, 0.0218000002,  0.800000012
     82,  0.400000006, -0.00480000023,  0.800000012
     83,  0.400000006, -0.0313999988,  0.800000012
     84,  0.400000006, -0.0579999983,  0.800000012
     85,  0.400000006,  0.075000003,  0.699999988
     86,  0.400000006, 0.0483999997,  0.699999988
     87,  0.400000006, 0.0218000002,  0.699999988
     88,  0.400000006, -0.00480000023,  0.699999988
     89,  0.400000006, -0.0313999988,  0.699999988
     90,  0.400000006, -0.0579999983,  0.699999988
     91,  0.400000006,  0.075000003,  0.600000024
     92,  0.400000006, 0.0483999997,  0.600000024
     93,  0.400000006, 0.0218000002,  0.600000024
     94,  0.400000006, -0.00480000023,  0.600000024
     95,  0.400000006, -0.0313999988,  0.600000024
     96,  0.400000006, -0.0579999983,  0.600000024
     97,  0.400000006,  0.075000003,          0.5
     98,  0.400000006, 0.0483999997,          0.5
     99,  0.400000006, 0.0218000002,          0.5
    100,  0.400000006, -0.00480000023,          0.5
    101,  0.400000006, -0.0313999988,          0.5
    102,  0.400000006, -0.0579999983,          0.5
    103,  0.400000006,  0.075000003,  0.400000006
    104,  0.400000006, 0.0483999997,  0.400000006
    105,  0.400000006, 0.0218000002,  0.400000006
    106,  0.400000006, -0.00480000023,  0.400000006
    107,  0.400000006, -0.0313999988,  0.400000006
    108,  0.400000006, -0.0579999983,  0.400000006
    109,  0.400000006,  0.075000003,  0.300000012
    110,  0.400000006, 0.0483999997,  0.300000012
    111,  0.400000006, 0.0218000002,  0.300000012
    112,  0.400000006, -0.00480000023,  0.300000012
    113,  0.400000006, -0.0313999988,  0.300000012
    114,  0.400000006, -0.0579999983,  0.300000012
    115,  0.400000006,  0.075000003,  0.200000003
    116,  0.400000006, 0.0483999997,  0.200000003
    117,  0.400000006, 0.0218000002,  0.200000003
    118,  0.400000006, -0.00480000023,  0.200000003
    119,  0.400000006, -0.0313999988,  0.200000003
    120,  0.400000006, -0.0579999983,  0.200000003
    121,  0.400000006,  0.075000003,  0.100000001
    122,  0.400000006, 0.0483999997,  0.100000001
    123,  0.400000006, 0.0218000002,  0.100000001
    124,  0.400000006, -0.00480000023,  0.100000001
    125,  0.400000006, -0.0313999988,  0.100000001
    126,  0.400000006, -0.0579999983,  0.100000001
    127,  0.400000006,  0.075000003,           0.
    128,  0.400000006, 0.0483999997,           0.
    129,  0.400000006, 0.0218000002,           0.
    130,  0.400000006, -0.00480000023,           0.
    131,  0.400000006, -0.0313999988,           0.
    132,  0.400000006, -0.0579999983,           0.
    133,  0.300000012,  0.075000003,           1.
    134,  0.300000012, 0.0483999997,           1.
    135,  0.300000012, 0.0218000002,           1.
    136,  0.300000012, -0.00480000023,           1.
    137,  0.300000012, -0.0313999988,           1.
    138,  0.300000012, -0.0579999983,           1.
    139,  0.300000012,  0.075000003,  0.899999976
    140,  0.300000012, 0.0483999997,  0.899999976
    141,  0.300000012, 0.0218000002,  0.899999976
    142,  0.300000012, -0.00480000023,  0.899999976
    143,  0.300000012, -0.0313999988,  0.899999976
    144,  0.300000012, -0.0579999983,  0.899999976
    145,  0.300000012,  0.075000003,  0.800000012
    146,  0.300000012, 0.0483999997,  0.800000012
    147,  0.300000012, 0.0218000002,  0.800000012
    148,  0.300000012, -0.00480000023,  0.800000012
    149,  0.300000012, -0.0313999988,  0.800000012
    150,  0.300000012, -0.0579999983,  0.800000012
    151,  0.300000012,  0.075000003,  0.699999988
    152,  0.300000012, 0.0483999997,  0.699999988
    153,  0.300000012, 0.0218000002,  0.699999988
    154,  0.300000012, -0.00480000023,  0.699999988
    155,  0.300000012, -0.0313999988,  0.699999988
    156,  0.300000012, -0.0579999983,  0.699999988
    157,  0.300000012,  0.075000003,  0.600000024
    158,  0.300000012, 0.0483999997,  0.600000024
    159,  0.300000012, 0.0218000002,  0.600000024
    160,  0.300000012, -0.00480000023,  0.600000024
    161,  0.300000012, -0.0313999988,  0.600000024
    162,  0.300000012, -0.0579999983,  0.600000024
    163,  0.300000012,  0.075000003,          0.5
    164,  0.300000012, 0.0483999997,          0.5
    165,  0.300000012, 0.0218000002,          0.5
    166,  0.300000012, -0.00480000023,          0.5
    167,  0.300000012, -0.0313999988,          0.5
    168,  0.300000012, -0.0579999983,          0.5
    169,  0.300000012,  0.075000003,  0.400000006
    170,  0.300000012, 0.0483999997,  0.400000006
    171,  0.300000012, 0.0218000002,  0.400000006
    172,  0.300000012, -0.00480000023,  0.400000006
    173,  0.300000012, -0.0313999988,  0.400000006
    174,  0.300000012, -0.0579999983,  0.400000006
    175,  0.300000012,  0.075000003,  0.300000012
    176,  0.300000012, 0.0483999997,  0.300000012
    177,  0.300000012, 0.0218000002,  0.300000012
    178,  0.300000012, -0.00480000023,  0.300000012
    179,  0.300000012, -0.0313999988,  0.300000012
    180,  0.300000012, -0.0579999983,  0.300000012
    181,  0.300000012,  0.075000003,  0.200000003
    182,  0.300000012, 0.0483999997,  0.200000003
    183,  0.300000012, 0.0218000002,  0.200000003
    184,  0.300000012, -0.00480000023,  0.200000003
    185,  0.300000012, -0.0313999988,  0.200000003
    186,  0.300000012, -0.0579999983,  0.200000003
    187,  0.300000012,  0.075000003,  0.100000001
    188,  0.300000012, 0.0483999997,  0.100000001
    189,  0.300000012, 0.0218000002,  0.100000001
    190,  0.300000012, -0.00480000023,  0.100000001
    191,  0.300000012, -0.0313999988,  0.100000001
    192,  0.300000012, -0.0579999983,  0.100000001
    193,  0.300000012,  0.075000003,           0.
    194,  0.300000012, 0.0483999997,           0.
    195,  0.300000012, 0.0218000002,           0.
    196,  0.300000012, -0.00480000023,           0.
    197,  0.300000012, -0.0313999988,           0.
    198,  0.300000012, -0.0579999983,           0.
    199,  0.200000003,  0.075000003,           1.
    200,  0.200000003, 0.0483999997,           1.
    201,  0.200000003, 0.0218000002,           1.
    202,  0.200000003, -0.00480000023,           1.
    203,  0.200000003, -0.0313999988,           1.
    204,  0.200000003, -0.0579999983,           1.
    205,  0.200000003,  0.075000003,  0.899999976
    206,  0.200000003, 0.0483999997,  0.899999976
    207,  0.200000003, 0.0218000002,  0.899999976
    208,  0.200000003, -0.00480000023,  0.899999976
    209,  0.200000003, -0.0313999988,  0.899999976
    210,  0.200000003, -0.0579999983,  0.899999976
    211,  0.200000003,  0.075000003,  0.800000012
    212,  0.200000003, 0.0483999997,  0.800000012
    213,  0.200000003, 0.0218000002,  0.800000012
    214,  0.200000003, -0.00480000023,  0.800000012
    215,  0.200000003, -0.0313999988,  0.800000012
    216,  0.200000003, -0.0579999983,  0.800000012
    217,  0.200000003,  0.075000003,  0.699999988
    218,  0.200000003, 0.0483999997,  0.699999988
    219,  0.200000003, 0.0218000002,  0.699999988
    220,  0.200000003, -0.00480000023,  0.699999988
    221,  0.200000003, -0.0313999988,  0.699999988
    222,  0.200000003, -0.0579999983,  0.699999988
    223,  0.200000003,  0.075000003,  0.600000024
    224,  0.200000003, 0.0483999997,  0.600000024
    225,  0.200000003, 0.0218000002,  0.600000024
    226,  0.200000003, -0.00480000023,  0.600000024
    227,  0.200000003, -0.0313999988,  0.600000024
    228,  0.200000003, -0.0579999983,  0.600000024
    229,  0.200000003,  0.075000003,          0.5
    230,  0.200000003, 0.0483999997,          0.5
    231,  0.200000003, 0.0218000002,          0.5
    232,  0.200000003, -0.00480000023,          0.5
    233,  0.200000003, -0.0313999988,          0.5
    234,  0.200000003, -0.0579999983,          0.5
    235,  0.200000003,  0.075000003,  0.400000006
    236,  0.200000003, 0.0483999997,  0.400000006
    237,  0.200000003, 0.0218000002,  0.400000006
    238,  0.200000003, -0.00480000023,  0.400000006
    239,  0.200000003, -0.0313999988,  0.400000006
    240,  0.200000003, -0.0579999983,  0.400000006
    241,  0.200000003,  0.075000003,  0.300000012
    242,  0.200000003, 0.0483999997,  0.300000012
    243,  0.200000003, 0.0218000002,  0.300000012
    244,  0.200000003, -0.00480000023,  0.300000012
    245,  0.200000003, -0.0313999988,  0.300000012
    246,  0.200000003, -0.0579999983,  0.300000012
    247,  0.200000003,  0.075000003,  0.200000003
    248,  0.200000003, 0.0483999997,  0.200000003
    249,  0.200000003, 0.0218000002,  0.200000003
    250,  0.200000003, -0.00480000023,  0.200000003
    251,  0.200000003, -0.0313999988,  0.200000003
    252,  0.200000003, -0.0579999983,  0.200000003
    253,  0.200000003,  0.075000003,  0.100000001
    254,  0.200000003, 0.0483999997,  0.100000001
    255,  0.200000003, 0.0218000002,  0.100000001
    256,  0.200000003, -0.00480000023,  0.100000001
    257,  0.200000003, -0.0313999988,  0.100000001
    258,  0.200000003, -0.0579999983,  0.100000001
    259,  0.200000003,  0.075000003,           0.
    260,  0.200000003, 0.0483999997,           0.
    261,  0.200000003, 0.0218000002,           0.
    262,  0.200000003, -0.00480000023,           0.
    263,  0.200000003, -0.0313999988,           0.
    264,  0.200000003, -0.0579999983,           0.
    265,  0.100000001,  0.075000003,           1.
    266,  0.100000001, 0.0483999997,           1.
    267,  0.100000001, 0.0218000002,           1.
    268,  0.100000001, -0.00480000023,           1.
    269,  0.100000001, -0.0313999988,           1.
    270,  0.100000001, -0.0579999983,           1.
    271,  0.100000001,  0.075000003,  0.899999976
    272,  0.100000001, 0.0483999997,  0.899999976
    273,  0.100000001, 0.0218000002,  0.899999976
    274,  0.100000001, -0.00480000023,  0.899999976
    275,  0.100000001, -0.0313999988,  0.899999976
    276,  0.100000001, -0.0579999983,  0.899999976
    277,  0.100000001,  0.075000003,  0.800000012
    278,  0.100000001, 0.0483999997,  0.800000012
    279,  0.100000001, 0.0218000002,  0.800000012
    280,  0.100000001, -0.00480000023,  0.800000012
    281,  0.100000001, -0.0313999988,  0.800000012
    282,  0.100000001, -0.0579999983,  0.800000012
    283,  0.100000001,  0.075000003,  0.699999988
    284,  0.100000001, 0.0483999997,  0.699999988
    285,  0.100000001, 0.0218000002,  0.699999988
    286,  0.100000001, -0.00480000023,  0.699999988
    287,  0.100000001, -0.0313999988,  0.699999988
    288,  0.100000001, -0.0579999983,  0.699999988
    289,  0.100000001,  0.075000003,  0.600000024
    290,  0.100000001, 0.0483999997,  0.600000024
    291,  0.100000001, 0.0218000002,  0.600000024
    292,  0.100000001, -0.00480000023,  0.600000024
    293,  0.100000001, -0.0313999988,  0.600000024
    294,  0.100000001, -0.0579999983,  0.600000024
    295,  0.100000001,  0.075000003,          0.5
    296,  0.100000001, 0.0483999997,          0.5
    297,  0.100000001, 0.0218000002,          0.5
    298,  0.100000001, -0.00480000023,          0.5
    299,  0.100000001, -0.0313999988,          0.5
    300,  0.100000001, -0.0579999983,          0.5
    301,  0.100000001,  0.075000003,  0.400000006
    302,  0.100000001, 0.0483999997,  0.400000006
    303,  0.100000001, 0.0218000002,  0.400000006
    304,  0.100000001, -0.00480000023,  0.400000006
    305,  0.100000001, -0.0313999988,  0.400000006
    306,  0.100000001, -0.0579999983,  0.400000006
    307,  0.100000001,  0.075000003,  0.300000012
    308,  0.100000001, 0.0483999997,  0.300000012
    309,  0.100000001, 0.0218000002,  0.300000012
    310,  0.100000001, -0.00480000023,  0.300000012
    311,  0.100000001, -0.0313999988,  0.300000012
    312,  0.100000001, -0.0579999983,  0.300000012
    313,  0.100000001,  0.075000003,  0.200000003
    314,  0.100000001, 0.0483999997,  0.200000003
    315,  0.100000001, 0.0218000002,  0.200000003
    316,  0.100000001, -0.00480000023,  0.200000003
    317,  0.100000001, -0.0313999988,  0.200000003
    318,  0.100000001, -0.0579999983,  0.200000003
    319,  0.100000001,  0.075000003,  0.100000001
    320,  0.100000001, 0.0483999997,  0.100000001
    321,  0.100000001, 0.0218000002,  0.100000001
    322,  0.100000001, -0.00480000023,  0.100000001
    323,  0.100000001, -0.0313999988,  0.100000001
    324,  0.100000001, -0.0579999983,  0.100000001
    325,  0.100000001,  0.075000003,           0.
    326,  0.100000001, 0.0483999997,           0.
    327,  0.100000001, 0.0218000002,           0.
    328,  0.100000001, -0.00480000023,           0.
    329,  0.100000001, -0.0313999988,           0.
    330,  0.100000001, -0.0579999983,           0.
    331,           0.,  0.075000003,           1.
    332,           0., 0.0483999997,           1.
    333,           0., 0.0218000002,           1.
    334,           0., -0.00480000023,           1.
    335,           0., -0.0313999988,           1.
    336,           0., -0.0579999983,           1.
    337,           0.,  0.075000003,  0.899999976
    338,           0., 0.0483999997,  0.899999976
    339,           0., 0.0218000002,  0.899999976
    340,           0., -0.00480000023,  0.899999976
    341,           0., -0.0313999988,  0.899999976
    342,           0., -0.0579999983,  0.899999976
    343,           0.,  0.075000003,  0.800000012
    344,           0., 0.0483999997,  0.800000012
    345,           0., 0.0218000002,  0.800000012
    346,           0., -0.00480000023,  0.800000012
    347,           0., -0.0313999988,  0.800000012
    348,           0., -0.0579999983,  0.800000012
    349,           0.,  0.075000003,  0.699999988
    350,           0., 0.0483999997,  0.699999988
    351,           0., 0.0218000002,  0.699999988
    352,           0., -0.00480000023,  0.699999988
    353,           0., -0.0313999988,  0.699999988
    354,           0., -0.0579999983,  0.699999988
    355,           0.,  0.075000003,  0.600000024
    356,           0., 0.0483999997,  0.600000024
    357,           0., 0.0218000002,  0.600000024
    358,           0., -0.00480000023,  0.600000024
    359,           0., -0.0313999988,  0.600000024
    360,           0., -0.0579999983,  0.600000024
    361,           0.,  0.075000003,          0.5
    362,           0., 0.0483999997,          0.5
    363,           0., 0.0218000002,          0.5
    364,           0., -0.00480000023,          0.5
    365,           0., -0.0313999988,          0.5
    366,           0., -0.0579999983,          0.5
    367,           0.,  0.075000003,  0.400000006
    368,           0., 0.0483999997,  0.400000006
    369,           0., 0.0218000002,  0.400000006
    370,           0., -0.00480000023,  0.400000006
    371,           0., -0.0313999988,  0.400000006
    372,           0., -0.0579999983,  0.400000006
    373,           0.,  0.075000003,  0.300000012
    374,           0., 0.0483999997,  0.300000012
    375,           0., 0.0218000002,  0.300000012
    376,           0., -0.00480000023,  0.300000012
    377,           0., -0.0313999988,  0.300000012
    378,           0., -0.0579999983,  0.300000012
    379,           0.,  0.075000003,  0.200000003
    380,           0., 0.0483999997,  0.200000003
    381,           0., 0.0218000002,  0.200000003
    382,           0., -0.00480000023,  0.200000003
    383,           0., -0.0313999988,  0.200000003
    384,           0., -0.0579999983,  0.200000003
    385,           0.,  0.075000003,  0.100000001
    386,           0., 0.0483999997,  0.100000001
    387,           0., 0.0218000002,  0.100000001
    388,           0., -0.00480000023,  0.100000001
    389,           0., -0.0313999988,  0.100000001
    390,           0., -0.0579999983,  0.100000001
    391,           0.,  0.075000003,           0.
    392,           0., 0.0483999997,           0.
    393,           0., 0.0218000002,           0.
    394,           0., -0.00480000023,           0.
    395,           0., -0.0313999988,           0.
    396,           0., -0.0579999983,           0.
    397, -0.100000001,  0.075000003,           1.
    398, -0.100000001, 0.0483999997,           1.
    399, -0.100000001, 0.0218000002,           1.
    400, -0.100000001, -0.00480000023,           1.
    401, -0.100000001, -0.0313999988,           1.
    402, -0.100000001, -0.0579999983,           1.
    403, -0.100000001,  0.075000003,  0.899999976
    404, -0.100000001, 0.0483999997,  0.899999976
    405, -0.100000001, 0.0218000002,  0.899999976
    406, -0.100000001, -0.00480000023,  0.899999976
    407, -0.100000001, -0.0313999988,  0.899999976
    408, -0.100000001, -0.0579999983,  0.899999976
    409, -0.100000001,  0.075000003,  0.800000012
    410, -0.100000001, 0.0483999997,  0.800000012
    411, -0.100000001, 0.0218000002,  0.800000012
    412, -0.100000001, -0.00480000023,  0.800000012
    413, -0.100000001, -0.0313999988,  0.800000012
    414, -0.100000001, -0.0579999983,  0.800000012
    415, -0.100000001,  0.075000003,  0.699999988
    416, -0.100000001, 0.0483999997,  0.699999988
    417, -0.100000001, 0.0218000002,  0.699999988
    418, -0.100000001, -0.00480000023,  0.699999988
    419, -0.100000001, -0.0313999988,  0.699999988
    420, -0.100000001, -0.0579999983,  0.699999988
    421, -0.100000001,  0.075000003,  0.600000024
    422, -0.100000001, 0.0483999997,  0.600000024
    423, -0.100000001, 0.0218000002,  0.600000024
    424, -0.100000001, -0.00480000023,  0.600000024
    425, -0.100000001, -0.0313999988,  0.600000024
    426, -0.100000001, -0.0579999983,  0.600000024
    427, -0.100000001,  0.075000003,          0.5
    428, -0.100000001, 0.0483999997,          0.5
    429, -0.100000001, 0.0218000002,          0.5
    430, -0.100000001, -0.00480000023,          0.5
    431, -0.100000001, -0.0313999988,          0.5
    432, -0.100000001, -0.0579999983,          0.5
    433, -0.100000001,  0.075000003,  0.400000006
    434, -0.100000001, 0.0483999997,  0.400000006
    435, -0.100000001, 0.0218000002,  0.400000006
    436, -0.100000001, -0.00480000023,  0.400000006
    437, -0.100000001, -0.0313999988,  0.400000006
    438, -0.100000001, -0.0579999983,  0.400000006
    439, -0.100000001,  0.075000003,  0.300000012
    440, -0.100000001, 0.0483999997,  0.300000012
    441, -0.100000001, 0.0218000002,  0.300000012
    442, -0.100000001, -0.00480000023,  0.300000012
    443, -0.100000001, -0.0313999988,  0.300000012
    444, -0.100000001, -0.0579999983,  0.300000012
    445, -0.100000001,  0.075000003,  0.200000003
    446, -0.100000001, 0.0483999997,  0.200000003
    447, -0.100000001, 0.0218000002,  0.200000003
    448, -0.100000001, -0.00480000023,  0.200000003
    449, -0.100000001, -0.0313999988,  0.200000003
    450, -0.100000001, -0.0579999983,  0.200000003
    451, -0.100000001,  0.075000003,  0.100000001
    452, -0.100000001, 0.0483999997,  0.100000001
    453, -0.100000001, 0.0218000002,  0.100000001
    454, -0.100000001, -0.00480000023,  0.100000001
    455, -0.100000001, -0.0313999988,  0.100000001
    456, -0.100000001, -0.0579999983,  0.100000001
    457, -0.100000001,  0.075000003,           0.
    458, -0.100000001, 0.0483999997,           0.
    459, -0.100000001, 0.0218000002,           0.
    460, -0.100000001, -0.00480000023,           0.
    461, -0.100000001, -0.0313999988,           0.
    462, -0.100000001, -0.0579999983,           0.
    463, -0.200000003,  0.075000003,           1.
    464, -0.200000003, 0.0483999997,           1.
    465, -0.200000003, 0.0218000002,           1.
    466, -0.200000003, -0.00480000023,           1.
    467, -0.200000003, -0.0313999988,           1.
    468, -0.200000003, -0.0579999983,           1.
    469, -0.200000003,  0.075000003,  0.899999976
    470, -0.200000003, 0.0483999997,  0.899999976
    471, -0.200000003, 0.0218000002,  0.899999976
    472, -0.200000003, -0.00480000023,  0.899999976
    473, -0.200000003, -0.0313999988,  0.899999976
    474, -0.200000003, -0.0579999983,  0.899999976
    475, -0.200000003,  0.075000003,  0.800000012
    476, -0.200000003, 0.0483999997,  0.800000012
    477, -0.200000003, 0.0218000002,  0.800000012
    478, -0.200000003, -0.00480000023,  0.800000012
    479, -0.200000003, -0.0313999988,  0.800000012
    480, -0.200000003, -0.0579999983,  0.800000012
    481, -0.200000003,  0.075000003,  0.699999988
    482, -0.200000003, 0.0483999997,  0.699999988
    483, -0.200000003, 0.0218000002,  0.699999988
    484, -0.200000003, -0.00480000023,  0.699999988
    485, -0.200000003, -0.0313999988,  0.699999988
    486, -0.200000003, -0.0579999983,  0.699999988
    487, -0.200000003,  0.075000003,  0.600000024
    488, -0.200000003, 0.0483999997,  0.600000024
    489, -0.200000003, 0.0218000002,  0.600000024
    490, -0.200000003, -0.00480000023,  0.600000024
    491, -0.200000003, -0.0313999988,  0.600000024
    492, -0.200000003, -0.0579999983,  0.600000024
    493, -0.200000003,  0.075000003,          0.5
    494, -0.200000003, 0.0483999997,          0.5
    495, -0.200000003, 0.0218000002,          0.5
    496, -0.200000003, -0.00480000023,          0.5
    497, -0.200000003, -0.0313999988,          0.5
    498, -0.200000003, -0.0579999983,          0.5
    499, -0.200000003,  0.075000003,  0.400000006
    500, -0.200000003, 0.0483999997,  0.400000006
    501, -0.200000003, 0.0218000002,  0.400000006
    502, -0.200000003, -0.00480000023,  0.400000006
    503, -0.200000003, -0.0313999988,  0.400000006
    504, -0.200000003, -0.0579999983,  0.400000006
    505, -0.200000003,  0.075000003,  0.300000012
    506, -0.200000003, 0.0483999997,  0.300000012
    507, -0.200000003, 0.0218000002,  0.300000012
    508, -0.200000003, -0.00480000023,  0.300000012
    509, -0.200000003, -0.0313999988,  0.300000012
    510, -0.200000003, -0.0579999983,  0.300000012
    511, -0.200000003,  0.075000003,  0.200000003
    512, -0.200000003, 0.0483999997,  0.200000003
    513, -0.200000003, 0.0218000002,  0.200000003
    514, -0.200000003, -0.00480000023,  0.200000003
    515, -0.200000003, -0.0313999988,  0.200000003
    516, -0.200000003, -0.0579999983,  0.200000003
    517, -0.200000003,  0.075000003,  0.100000001
    518, -0.200000003, 0.0483999997,  0.100000001
    519, -0.200000003, 0.0218000002,  0.100000001
    520, -0.200000003, -0.00480000023,  0.100000001
    521, -0.200000003, -0.0313999988,  0.100000001
    522, -0.200000003, -0.0579999983,  0.100000001
    523, -0.200000003,  0.075000003,           0.
    524, -0.200000003, 0.0483999997,           0.
    525, -0.200000003, 0.0218000002,           0.
    526, -0.200000003, -0.00480000023,           0.
    527, -0.200000003, -0.0313999988,           0.
    528, -0.200000003, -0.0579999983,           0.
    529, -0.300000012,  0.075000003,           1.
    530, -0.300000012, 0.0483999997,           1.
    531, -0.300000012, 0.0218000002,           1.
    532, -0.300000012, -0.00480000023,           1.
    533, -0.300000012, -0.0313999988,           1.
    534, -0.300000012, -0.0579999983,           1.
    535, -0.300000012,  0.075000003,  0.899999976
    536, -0.300000012, 0.0483999997,  0.899999976
    537, -0.300000012, 0.0218000002,  0.899999976
    538, -0.300000012, -0.00480000023,  0.899999976
    539, -0.300000012, -0.0313999988,  0.899999976
    540, -0.300000012, -0.0579999983,  0.899999976
    541, -0.300000012,  0.075000003,  0.800000012
    542, -0.300000012, 0.0483999997,  0.800000012
    543, -0.300000012, 0.0218000002,  0.800000012
    544, -0.300000012, -0.00480000023,  0.800000012
    545, -0.300000012, -0.0313999988,  0.800000012
    546, -0.300000012, -0.0579999983,  0.800000012
    547, -0.300000012,  0.075000003,  0.699999988
    548, -0.300000012, 0.0483999997,  0.699999988
    549, -0.300000012, 0.0218000002,  0.699999988
    550, -0.300000012, -0.00480000023,  0.699999988
    551, -0.300000012, -0.0313999988,  0.699999988
    552, -0.300000012, -0.0579999983,  0.699999988
    553, -0.300000012,  0.075000003,  0.600000024
    554, -0.300000012, 0.0483999997,  0.600000024
    555, -0.300000012, 0.0218000002,  0.600000024
    556, -0.300000012, -0.00480000023,  0.600000024
    557, -0.300000012, -0.0313999988,  0.600000024
    558, -0.300000012, -0.0579999983,  0.600000024
    559, -0.300000012,  0.075000003,          0.5
    560, -0.300000012, 0.0483999997,          0.5
    561, -0.300000012, 0.0218000002,          0.5
    562, -0.300000012, -0.00480000023,          0.5
    563, -0.300000012, -0.0313999988,          0.5
    564, -0.300000012, -0.0579999983,          0.5
    565, -0.300000012,  0.075000003,  0.400000006
    566, -0.300000012, 0.0483999997,  0.400000006
    567, -0.300000012, 0.0218000002,  0.400000006
    568, -0.300000012, -0.00480000023,  0.400000006
    569, -0.300000012, -0.0313999988,  0.400000006
    570, -0.300000012, -0.0579999983,  0.400000006
    571, -0.300000012,  0.075000003,  0.300000012
    572, -0.300000012, 0.0483999997,  0.300000012
    573, -0.300000012, 0.0218000002,  0.300000012
    574, -0.300000012, -0.00480000023,  0.300000012
    575, -0.300000012, -0.0313999988,  0.300000012
    576, -0.300000012, -0.0579999983,  0.300000012
    577, -0.300000012,  0.075000003,  0.200000003
    578, -0.300000012, 0.0483999997,  0.200000003
    579, -0.300000012, 0.0218000002,  0.200000003
    580, -0.300000012, -0.00480000023,  0.200000003
    581, -0.300000012, -0.0313999988,  0.200000003
    582, -0.300000012, -0.0579999983,  0.200000003
    583, -0.300000012,  0.075000003,  0.100000001
    584, -0.300000012, 0.0483999997,  0.100000001
    585, -0.300000012, 0.0218000002,  0.100000001
    586, -0.300000012, -0.00480000023,  0.100000001
    587, -0.300000012, -0.0313999988,  0.100000001
    588, -0.300000012, -0.0579999983,  0.100000001
    589, -0.300000012,  0.075000003,           0.
    590, -0.300000012, 0.0483999997,           0.
    591, -0.300000012, 0.0218000002,           0.
    592, -0.300000012, -0.00480000023,           0.
    593, -0.300000012, -0.0313999988,           0.
    594, -0.300000012, -0.0579999983,           0.
    595, -0.400000006,  0.075000003,           1.
    596, -0.400000006, 0.0483999997,           1.
    597, -0.400000006, 0.0218000002,           1.
    598, -0.400000006, -0.00480000023,           1.
    599, -0.400000006, -0.0313999988,           1.
    600, -0.400000006, -0.0579999983,           1.
    601, -0.400000006,  0.075000003,  0.899999976
    602, -0.400000006, 0.0483999997,  0.899999976
    603, -0.400000006, 0.0218000002,  0.899999976
    604, -0.400000006, -0.00480000023,  0.899999976
    605, -0.400000006, -0.0313999988,  0.899999976
    606, -0.400000006, -0.0579999983,  0.899999976
    607, -0.400000006,  0.075000003,  0.800000012
    608, -0.400000006, 0.0483999997,  0.800000012
    609, -0.400000006, 0.0218000002,  0.800000012
    610, -0.400000006, -0.00480000023,  0.800000012
    611, -0.400000006, -0.0313999988,  0.800000012
    612, -0.400000006, -0.0579999983,  0.800000012
    613, -0.400000006,  0.075000003,  0.699999988
    614, -0.400000006, 0.0483999997,  0.699999988
    615, -0.400000006, 0.0218000002,  0.699999988
    616, -0.400000006, -0.00480000023,  0.699999988
    617, -0.400000006, -0.0313999988,  0.699999988
    618, -0.400000006, -0.0579999983,  0.699999988
    619, -0.400000006,  0.075000003,  0.600000024
    620, -0.400000006, 0.0483999997,  0.600000024
    621, -0.400000006, 0.0218000002,  0.600000024
    622, -0.400000006, -0.00480000023,  0.600000024
    623, -0.400000006, -0.0313999988,  0.600000024
    624, -0.400000006, -0.0579999983,  0.600000024
    625, -0.400000006,  0.075000003,          0.5
    626, -0.400000006, 0.0483999997,          0.5
    627, -0.400000006, 0.0218000002,          0.5
    628, -0.400000006, -0.00480000023,          0.5
    629, -0.400000006, -0.0313999988,          0.5
    630, -0.400000006, -0.0579999983,          0.5
    631, -0.400000006,  0.075000003,  0.400000006
    632, -0.400000006, 0.0483999997,  0.400000006
    633, -0.400000006, 0.0218000002,  0.400000006
    634, -0.400000006, -0.00480000023,  0.400000006
    635, -0.400000006, -0.0313999988,  0.400000006
    636, -0.400000006, -0.0579999983,  0.400000006
    637, -0.400000006,  0.075000003,  0.300000012
    638, -0.400000006, 0.0483999997,  0.300000012
    639, -0.400000006, 0.0218000002,  0.300000012
    640, -0.400000006, -0.00480000023,  0.300000012
    641, -0.400000006, -0.0313999988,  0.300000012
    642, -0.400000006, -0.0579999983,  0.300000012
    643, -0.400000006,  0.075000003,  0.200000003
    644, -0.400000006, 0.0483999997,  0.200000003
    645, -0.400000006, 0.0218000002,  0.200000003
    646, -0.400000006, -0.00480000023,  0.200000003
    647, -0.400000006, -0.0313999988,  0.200000003
    648, -0.400000006, -0.0579999983,  0.200000003
    649, -0.400000006,  0.075000003,  0.100000001
    650, -0.400000006, 0.0483999997,  0.100000001
    651, -0.400000006, 0.0218000002,  0.100000001
    652, -0.400000006, -0.00480000023,  0.100000001
    653, -0.400000006, -0.0313999988,  0.100000001
    654, -0.400000006, -0.0579999983,  0.100000001
    655, -0.400000006,  0.075000003,           0.
    656, -0.400000006, 0.0483999997,           0.
    657, -0.400000006, 0.0218000002,           0.
    658, -0.400000006, -0.00480000023,           0.
    659, -0.400000006, -0.0313999988,           0.
    660, -0.400000006, -0.0579999983,           0.
    661,         -0.5,  0.075000003,           1.
    662,         -0.5, 0.0483999997,           1.
    663,         -0.5, 0.0218000002,           1.
    664,         -0.5, -0.00480000023,           1.
    665,         -0.5, -0.0313999988,           1.
    666,         -0.5, -0.0579999983,           1.
    667,         -0.5,  0.075000003,  0.899999976
    668,         -0.5, 0.0483999997,  0.899999976
    669,         -0.5, 0.0218000002,  0.899999976
    670,         -0.5, -0.00480000023,  0.899999976
    671,         -0.5, -0.0313999988,  0.899999976
    672,         -0.5, -0.0579999983,  0.899999976
    673,         -0.5,  0.075000003,  0.800000012
    674,         -0.5, 0.0483999997,  0.800000012
    675,         -0.5, 0.0218000002,  0.800000012
    676,         -0.5, -0.00480000023,  0.800000012
    677,         -0.5, -0.0313999988,  0.800000012
    678,         -0.5, -0.0579999983,  0.800000012
    679,         -0.5,  0.075000003,  0.699999988
    680,         -0.5, 0.0483999997,  0.699999988
    681,         -0.5, 0.0218000002,  0.699999988
    682,         -0.5, -0.00480000023,  0.699999988
    683,         -0.5, -0.0313999988,  0.699999988
    684,         -0.5, -0.0579999983,  0.699999988
    685,         -0.5,  0.075000003,  0.600000024
    686,         -0.5, 0.0483999997,  0.600000024
    687,         -0.5, 0.0218000002,  0.600000024
    688,         -0.5, -0.00480000023,  0.600000024
    689,         -0.5, -0.0313999988,  0.600000024
    690,         -0.5, -0.0579999983,  0.600000024
    691,         -0.5,  0.075000003,          0.5
    692,         -0.5, 0.0483999997,          0.5
    693,         -0.5, 0.0218000002,          0.5
    694,         -0.5, -0.00480000023,          0.5
    695,         -0.5, -0.0313999988,          0.5
    696,         -0.5, -0.0579999983,          0.5
    697,         -0.5,  0.075000003,  0.400000006
    698,         -0.5, 0.0483999997,  0.400000006
    699,         -0.5, 0.0218000002,  0.400000006
    700,         -0.5, -0.00480000023,  0.400000006
    701,         -0.5, -0.0313999988,  0.400000006
    702,         -0.5, -0.0579999983,  0.400000006
    703,         -0.5,  0.075000003,  0.300000012
    704,         -0.5, 0.0483999997,  0.300000012
    705,         -0.5, 0.0218000002,  0.300000012
    706,         -0.5, -0.00480000023,  0.300000012
    707,         -0.5, -0.0313999988,  0.300000012
    708,         -0.5, -0.0579999983,  0.300000012
    709,         -0.5,  0.075000003,  0.200000003
    710,         -0.5, 0.0483999997,  0.200000003
    711,         -0.5, 0.0218000002,  0.200000003
    712,         -0.5, -0.00480000023,  0.200000003
    713,         -0.5, -0.0313999988,  0.200000003
    714,         -0.5, -0.0579999983,  0.200000003
    715,         -0.5,  0.075000003,  0.100000001
    716,         -0.5, 0.0483999997,  0.100000001
    717,         -0.5, 0.0218000002,  0.100000001
    718,         -0.5, -0.00480000023,  0.100000001
    719,         -0.5, -0.0313999988,  0.100000001
    720,         -0.5, -0.0579999983,  0.100000001
    721,         -0.5,  0.075000003,           0.
    722,         -0.5, 0.0483999997,           0.
    723,         -0.5, 0.0218000002,           0.
    724,         -0.5, -0.00480000023,           0.
    725,         -0.5, -0.0313999988,           0.
    726,         -0.5, -0.0579999983,           0.
*Element, type=C3D8R
  1,  67,  68,  74,  73,   1,   2,   8,   7
  2,  68,  69,  75,  74,   2,   3,   9,   8
  3,  69,  70,  76,  75,   3,   4,  10,   9
  4,  70,  71,  77,  76,   4,   5,  11,  10
  5,  71,  72,  78,  77,   5,   6,  12,  11
  6,  73,  74,  80,  79,   7,   8,  14,  13
  7,  74,  75,  81,  80,   8,   9,  15,  14
  8,  75,  76,  82,  81,   9,  10,  16,  15
  9,  76,  77,  83,  82,  10,  11,  17,  16
 10,  77,  78,  84,  83,  11,  12,  18,  17
 11,  79,  80,  86,  85,  13,  14,  20,  19
 12,  80,  81,  87,  86,  14,  15,  21,  20
 13,  81,  82,  88,  87,  15,  16,  22,  21
 14,  82,  83,  89,  88,  16,  17,  23,  22
 15,  83,  84,  90,  89,  17,  18,  24,  23
 16,  85,  86,  92,  91,  19,  20,  26,  25
 17,  86,  87,  93,  92,  20,  21,  27,  26
 18,  87,  88,  94,  93,  21,  22,  28,  27
 19,  88,  89,  95,  94,  22,  23,  29,  28
 20,  89,  90,  96,  95,  23,  24,  30,  29
 21,  91,  92,  98,  97,  25,  26,  32,  31
 22,  92,  93,  99,  98,  26,  27,  33,  32
 23,  93,  94, 100,  99,  27,  28,  34,  33
 24,  94,  95, 101, 100,  28,  29,  35,  34
 25,  95,  96, 102, 101,  29,  30,  36,  35
 26,  97,  98, 104, 103,  31,  32,  38,  37
 27,  98,  99, 105, 104,  32,  33,  39,  38
 28,  99, 100, 106, 105,  33,  34,  40,  39
 29, 100, 101, 107, 106,  34,  35,  41,  40
 30, 101, 102, 108, 107,  35,  36,  42,  41
 31, 103, 104, 110, 109,  37,  38,  44,  43
 32, 104, 105, 111, 110,  38,  39,  45,  44
 33, 105, 106, 112, 111,  39,  40,  46,  45
 34, 106, 107, 113, 112,  40,  41,  47,  46
 35, 107, 108, 114, 113,  41,  42,  48,  47
 36, 109, 110, 116, 115,  43,  44,  50,  49
 37, 110, 111, 117, 116,  44,  45,  51,  50
 38, 111, 112, 118, 117,  45,  46,  52,  51
 39, 112, 113, 119, 118,  46,  47,  53,  52
 40, 113, 114, 120, 119,  47,  48,  54,  53
 41, 115, 116, 122, 121,  49,  50,  56,  55
 42, 116, 117, 123, 122,  50,  51,  57,  56
 43, 117, 118, 124, 123,  51,  52,  58,  57
 44, 118, 119, 125, 124,  52,  53,  59,  58
 45, 119, 120, 126, 125,  53,  54,  60,  59
 46, 121, 122, 128, 127,  55,  56,  62,  61
 47, 122, 123, 129, 128,  56,  57,  63,  62
 48, 123, 124, 130, 129,  57,  58,  64,  63
 49, 124, 125, 131, 130,  58,  59,  65,  64
 50, 125, 126, 132, 131,  59,  60,  66,  65
 51, 133, 134, 140, 139,  67,  68,  74,  73
 52, 134, 135, 141, 140,  68,  69,  75,  74
 53, 135, 136, 142, 141,  69,  70,  76,  75
 54, 136, 137, 143, 142,  70,  71,  77,  76
 55, 137, 138, 144, 143,  71,  72,  78,  77
 56, 139, 140, 146, 145,  73,  74,  80,  79
 57, 140, 141, 147, 146,  74,  75,  81,  80
 58, 141, 142, 148, 147,  75,  76,  82,  81
 59, 142, 143, 149, 148,  76,  77,  83,  82
 60, 143, 144, 150, 149,  77,  78,  84,  83
 61, 145, 146, 152, 151,  79,  80,  86,  85
 62, 146, 147, 153, 152,  80,  81,  87,  86
 63, 147, 148, 154, 153,  81,  82,  88,  87
 64, 148, 149, 155, 154,  82,  83,  89,  88
 65, 149, 150, 156, 155,  83,  84,  90,  89
 66, 151, 152, 158, 157,  85,  86,  92,  91
 67, 152, 153, 159, 158,  86,  87,  93,  92
 68, 153, 154, 160, 159,  87,  88,  94,  93
 69, 154, 155, 161, 160,  88,  89,  95,  94
 70, 155, 156, 162, 161,  89,  90,  96,  95
 71, 157, 158, 164, 163,  91,  92,  98,  97
 72, 158, 159, 165, 164,  92,  93,  99,  98
 73, 159, 160, 166, 165,  93,  94, 100,  99
 74, 160, 161, 167, 166,  94,  95, 101, 100
 75, 161, 162, 168, 167,  95,  96, 102, 101
 76, 163, 164, 170, 169,  97,  98, 104, 103
 77, 164, 165, 171, 170,  98,  99, 105, 104
 78, 165, 166, 172, 171,  99, 100, 106, 105
 79, 166, 167, 173, 172, 100, 101, 107, 106
 80, 167, 168, 174, 173, 101, 102, 108, 107
 81, 169, 170, 176, 175, 103, 104, 110, 109
 82, 170, 171, 177, 176, 104, 105, 111, 110
 83, 171, 172, 178, 177, 105, 106, 112, 111
 84, 172, 173, 179, 178, 106, 107, 113, 112
 85, 173, 174, 180, 179, 107, 108, 114, 113
 86, 175, 176, 182, 181, 109, 110, 116, 115
 87, 176, 177, 183, 182, 110, 111, 117, 116
 88, 177, 178, 184, 183, 111, 112, 118, 117
 89, 178, 179, 185, 184, 112, 113, 119, 118
 90, 179, 180, 186, 185, 113, 114, 120, 119
 91, 181, 182, 188, 187, 115, 116, 122, 121
 92, 182, 183, 189, 188, 116, 117, 123, 122
 93, 183, 184, 190, 189, 117, 118, 124, 123
 94, 184, 185, 191, 190, 118, 119, 125, 124
 95, 185, 186, 192, 191, 119, 120, 126, 125
 96, 187, 188, 194, 193, 121, 122, 128, 127
 97, 188, 189, 195, 194, 122, 123, 129, 128
 98, 189, 190, 196, 195, 123, 124, 130, 129
 99, 190, 191, 197, 196, 124, 125, 131, 130
100, 191, 192, 198, 197, 125, 126, 132, 131
101, 199, 200, 206, 205, 133, 134, 140, 139
102, 200, 201, 207, 206, 134, 135, 141, 140
103, 201, 202, 208, 207, 135, 136, 142, 141
104, 202, 203, 209, 208, 136, 137, 143, 142
105, 203, 204, 210, 209, 137, 138, 144, 143
106, 205, 206, 212, 211, 139, 140, 146, 145
107, 206, 207, 213, 212, 140, 141, 147, 146
108, 207, 208, 214, 213, 141, 142, 148, 147
109, 208, 209, 215, 214, 142, 143, 149, 148
110, 209, 210, 216, 215, 143, 144, 150, 149
111, 211, 212, 218, 217, 145, 146, 152, 151
112, 212, 213, 219, 218, 146, 147, 153, 152
113, 213, 214, 220, 219, 147, 148, 154, 153
114, 214, 215, 221, 220, 148, 149, 155, 154
115, 215, 216, 222, 221, 149, 150, 156, 155
116, 217, 218, 224, 223, 151, 152, 158, 157
117, 218, 219, 225, 224, 152, 153, 159, 158
118, 219, 220, 226, 225, 153, 154, 160, 159
119, 220, 221, 227, 226, 154, 155, 161, 160
120, 221, 222, 228, 227, 155, 156, 162, 161
121, 223, 224, 230, 229, 157, 158, 164, 163
122, 224, 225, 231, 230, 158, 159, 165, 164
123, 225, 226, 232, 231, 159, 160, 166, 165
124, 226, 227, 233, 232, 160, 161, 167, 166
125, 227, 228, 234, 233, 161, 162, 168, 167
126, 229, 230, 236, 235, 163, 164, 170, 169
127, 230, 231, 237, 236, 164, 165, 171, 170
128, 231, 232, 238, 237, 165, 166, 172, 171
129, 232, 233, 239, 238, 166, 167, 173, 172
130, 233, 234, 240, 239, 167, 168, 174, 173
131, 235, 236, 242, 241, 169, 170, 176, 175
132, 236, 237, 243, 242, 170, 171, 177, 176
133, 237, 238, 244, 243, 171, 172, 178, 177
134, 238, 239, 245, 244, 172, 173, 179, 178
135, 239, 240, 246, 245, 173, 174, 180, 179
136, 241, 242, 248, 247, 175, 176, 182, 181
137, 242, 243, 249, 248, 176, 177, 183, 182
138, 243, 244, 250, 249, 177, 178, 184, 183
139, 244, 245, 251, 250, 178, 179, 185, 184
140, 245, 246, 252, 251, 179, 180, 186, 185
141, 247, 248, 254, 253, 181, 182, 188, 187
142, 248, 249, 255, 254, 182, 183, 189, 188
143, 249, 250, 256, 255, 183, 184, 190, 189
144, 250, 251, 257, 256, 184, 185, 191, 190
145, 251, 252, 258, 257, 185, 186, 192, 191
146, 253, 254, 260, 259, 187, 188, 194, 193
147, 254, 255, 261, 260, 188, 189, 195, 194
148, 255, 256, 262, 261, 189, 190, 196, 195
149, 256, 257, 263, 262, 190, 191, 197, 196
150, 257, 258, 264, 263, 191, 192, 198, 197
151, 265, 266, 272, 271, 199, 200, 206, 205
152, 266, 267, 273, 272, 200, 201, 207, 206
153, 267, 268, 274, 273, 201, 202, 208, 207
154, 268, 269, 275, 274, 202, 203, 209, 208
155, 269, 270, 276, 275, 203, 204, 210, 209
156, 271, 272, 278, 277, 205, 206, 212, 211
157, 272, 273, 279, 278, 206, 207, 213, 212
158, 273, 274, 280, 279, 207, 208, 214, 213
159, 274, 275, 281, 280, 208, 209, 215, 214
160, 275, 276, 282, 281, 209, 210, 216, 215
161, 277, 278, 284, 283, 211, 212, 218, 217
162, 278, 279, 285, 284, 212, 213, 219, 218
163, 279, 280, 286, 285, 213, 214, 220, 219
164, 280, 281, 287, 286, 214, 215, 221, 220
165, 281, 282, 288, 287, 215, 216, 222, 221
166, 283, 284, 290, 289, 217, 218, 224, 223
167, 284, 285, 291, 290, 218, 219, 225, 224
168, 285, 286, 292, 291, 219, 220, 226, 225
169, 286, 287, 293, 292, 220, 221, 227, 226
170, 287, 288, 294, 293, 221, 222, 228, 227
171, 289, 290, 296, 295, 223, 224, 230, 229
172, 290, 291, 297, 296, 224, 225, 231, 230
173, 291, 292, 298, 297, 225, 226, 232, 231
174, 292, 293, 299, 298, 226, 227, 233, 232
175, 293, 294, 300, 299, 227, 228, 234, 233
176, 295, 296, 302, 301, 229, 230, 236, 235
177, 296, 297, 303, 302, 230, 231, 237, 236
178, 297, 298, 304, 303, 231, 232, 238, 237
179, 298, 299, 305, 304, 232, 233, 239, 238
180, 299, 300, 306, 305, 233, 234, 240, 239
181, 301, 302, 308, 307, 235, 236, 242, 241
182, 302, 303, 309, 308, 236, 237, 243, 242
183, 303, 304, 310, 309, 237, 238, 244, 243
184, 304, 305, 311, 310, 238, 239, 245, 244
185, 305, 306, 312, 311, 239, 240, 246, 245
186, 307, 308, 314, 313, 241, 242, 248, 247
187, 308, 309, 315, 314, 242, 243, 249, 248
188, 309, 310, 316, 315, 243, 244, 250, 249
189, 310, 311, 317, 316, 244, 245, 251, 250
190, 311, 312, 318, 317, 245, 246, 252, 251
191, 313, 314, 320, 319, 247, 248, 254, 253
192, 314, 315, 321, 320, 248, 249, 255, 254
193, 315, 316, 322, 321, 249, 250, 256, 255
194, 316, 317, 323, 322, 250, 251, 257, 256
195, 317, 318, 324, 323, 251, 252, 258, 257
196, 319, 320, 326, 325, 253, 254, 260, 259
197, 320, 321, 327, 326, 254, 255, 261, 260
198, 321, 322, 328, 327, 255, 256, 262, 261
199, 322, 323, 329, 328, 256, 257, 263, 262
200, 323, 324, 330, 329, 257, 258, 264, 263
201, 331, 332, 338, 337, 265, 266, 272, 271
202, 332, 333, 339, 338, 266, 267, 273, 272
203, 333, 334, 340, 339, 267, 268, 274, 273
204, 334, 335, 341, 340, 268, 269, 275, 274
205, 335, 336, 342, 341, 269, 270, 276, 275
206, 337, 338, 344, 343, 271, 272, 278, 277
207, 338, 339, 345, 344, 272, 273, 279, 278
208, 339, 340, 346, 345, 273, 274, 280, 279
209, 340, 341, 347, 346, 274, 275, 281, 280
210, 341, 342, 348, 347, 275, 276, 282, 281
211, 343, 344, 350, 349, 277, 278, 284, 283
212, 344, 345, 351, 350, 278, 279, 285, 284
213, 345, 346, 352, 351, 279, 280, 286, 285
214, 346, 347, 353, 352, 280, 281, 287, 286
215, 347, 348, 354, 353, 281, 282, 288, 287
216, 349, 350, 356, 355, 283, 284, 290, 289
217, 350, 351, 357, 356, 284, 285, 291, 290
218, 351, 352, 358, 357, 285, 286, 292, 291
219, 352, 353, 359, 358, 286, 287, 293, 292
220, 353, 354, 360, 359, 287, 288, 294, 293
221, 355, 356, 362, 361, 289, 290, 296, 295
222, 356, 357, 363, 362, 290, 291, 297, 296
223, 357, 358, 364, 363, 291, 292, 298, 297
224, 358, 359, 365, 364, 292, 293, 299, 298
225, 359, 360, 366, 365, 293, 294, 300, 299
226, 361, 362, 368, 367, 295, 296, 302, 301
227, 362, 363, 369, 368, 296, 297, 303, 302
228, 363, 364, 370, 369, 297, 298, 304, 303
229, 364, 365, 371, 370, 298, 299, 305, 304
230, 365, 366, 372, 371, 299, 300, 306, 305
231, 367, 368, 374, 373, 301, 302, 308, 307
232, 368, 369, 375, 374, 302, 303, 309, 308
233, 369, 370, 376, 375, 303, 304, 310, 309
234, 370, 371, 377, 376, 304, 305, 311, 310
235, 371, 372, 378, 377, 305, 306, 312, 311
236, 373, 374, 380, 379, 307, 308, 314, 313
237, 374, 375, 381, 380, 308, 309, 315, 314
238, 375, 376, 382, 381, 309, 310, 316, 315
239, 376, 377, 383, 382, 310, 311, 317, 316
240, 377, 378, 384, 383, 311, 312, 318, 317
241, 379, 380, 386, 385, 313, 314, 320, 319
242, 380, 381, 387, 386, 314, 315, 321, 320
243, 381, 382, 388, 387, 315, 316, 322, 321
244, 382, 383, 389, 388, 316, 317, 323, 322
245, 383, 384, 390, 389, 317, 318, 324, 323
246, 385, 386, 392, 391, 319, 320, 326, 325
247, 386, 387, 393, 392, 320, 321, 327, 326
248, 387, 388, 394, 393, 321, 322, 328, 327
249, 388, 389, 395, 394, 322, 323, 329, 328
250, 389, 390, 396, 395, 323, 324, 330, 329
251, 397, 398, 404, 403, 331, 332, 338, 337
252, 398, 399, 405, 404, 332, 333, 339, 338
253, 399, 400, 406, 405, 333, 334, 340, 339
254, 400, 401, 407, 406, 334, 335, 341, 340
255, 401, 402, 408, 407, 335, 336, 342, 341
256, 403, 404, 410, 409, 337, 338, 344, 343
257, 404, 405, 411, 410, 338, 339, 345, 344
258, 405, 406, 412, 411, 339, 340, 346, 345
259, 406, 407, 413, 412, 340, 341, 347, 346
260, 407, 408, 414, 413, 341, 342, 348, 347
261, 409, 410, 416, 415, 343, 344, 350, 349
262, 410, 411, 417, 416, 344, 345, 351, 350
263, 411, 412, 418, 417, 345, 346, 352, 351
264, 412, 413, 419, 418, 346, 347, 353, 352
265, 413, 414, 420, 419, 347, 348, 354, 353
266, 415, 416, 422, 421, 349, 350, 356, 355
267, 416, 417, 423, 422, 350, 351, 357, 356
268, 417, 418, 424, 423, 351, 352, 358, 357
269, 418, 419, 425, 424, 352, 353, 359, 358
270, 419, 420, 426, 425, 353, 354, 360, 359
271, 421, 422, 428, 427, 355, 356, 362, 361
272, 422, 423, 429, 428, 356, 357, 363, 362
273, 423, 424, 430, 429, 357, 358, 364, 363
274, 424, 425, 431, 430, 358, 359, 365, 364
275, 425, 426, 432, 431, 359, 360, 366, 365
276, 427, 428, 434, 433, 361, 362, 368, 367
277, 428, 429, 435, 434, 362, 363, 369, 368
278, 429, 430, 436, 435, 363, 364, 370, 369
279, 430, 431, 437, 436, 364, 365, 371, 370
280, 431, 432, 438, 437, 365, 366, 372, 371
281, 433, 434, 440, 439, 367, 368, 374, 373
282, 434, 435, 441, 440, 368, 369, 375, 374
283, 435, 436, 442, 441, 369, 370, 376, 375
284, 436, 437, 443, 442, 370, 371, 377, 376
285, 437, 438, 444, 443, 371, 372, 378, 377
286, 439, 440, 446, 445, 373, 374, 380, 379
287, 440, 441, 447, 446, 374, 375, 381, 380
288, 441, 442, 448, 447, 375, 376, 382, 381
289, 442, 443, 449, 448, 376, 377, 383, 382
290, 443, 444, 450, 449, 377, 378, 384, 383
291, 445, 446, 452, 451, 379, 380, 386, 385
292, 446, 447, 453, 452, 380, 381, 387, 386
293, 447, 448, 454, 453, 381, 382, 388, 387
294, 448, 449, 455, 454, 382, 383, 389, 388
295, 449, 450, 456, 455, 383, 384, 390, 389
296, 451, 452, 458, 457, 385, 386, 392, 391
297, 452, 453, 459, 458, 386, 387, 393, 392
298, 453, 454, 460, 459, 387, 388, 394, 393
299, 454, 455, 461, 460, 388, 389, 395, 394
300, 455, 456, 462, 461, 389, 390, 396, 395
301, 463, 464, 470, 469, 397, 398, 404, 403
302, 464, 465, 471, 470, 398, 399, 405, 404
303, 465, 466, 472, 471, 399, 400, 406, 405
304, 466, 467, 473, 472, 400, 401, 407, 406
305, 467, 468, 474, 473, 401, 402, 408, 407
306, 469, 470, 476, 475, 403, 404, 410, 409
307, 470, 471, 477, 476, 404, 405, 411, 410
308, 471, 472, 478, 477, 405, 406, 412, 411
309, 472, 473, 479, 478, 406, 407, 413, 412
310, 473, 474, 480, 479, 407, 408, 414, 413
311, 475, 476, 482, 481, 409, 410, 416, 415
312, 476, 477, 483, 482, 410, 411, 417, 416
313, 477, 478, 484, 483, 411, 412, 418, 417
314, 478, 479, 485, 484, 412, 413, 419, 418
315, 479, 480, 486, 485, 413, 414, 420, 419
316, 481, 482, 488, 487, 415, 416, 422, 421
317, 482, 483, 489, 488, 416, 417, 423, 422
318, 483, 484, 490, 489, 417, 418, 424, 423
319, 484, 485, 491, 490, 418, 419, 425, 424
320, 485, 486, 492, 491, 419, 420, 426, 425
321, 487, 488, 494, 493, 421, 422, 428, 427
322, 488, 489, 495, 494, 422, 423, 429, 428
323, 489, 490, 496, 495, 423, 424, 430, 429
324, 490, 491, 497, 496, 424, 425, 431, 430
325, 491, 492, 498, 497, 425, 426, 432, 431
326, 493, 494, 500, 499, 427, 428, 434, 433
327, 494, 495, 501, 500, 428, 429, 435, 434
328, 495, 496, 502, 501, 429, 430, 436, 435
329, 496, 497, 503, 502, 430, 431, 437, 436
330, 497, 498, 504, 503, 431, 432, 438, 437
331, 499, 500, 506, 505, 433, 434, 440, 439
332, 500, 501, 507, 506, 434, 435, 441, 440
333, 501, 502, 508, 507, 435, 436, 442, 441
334, 502, 503, 509, 508, 436, 437, 443, 442
335, 503, 504, 510, 509, 437, 438, 444, 443
336, 505, 506, 512, 511, 439, 440, 446, 445
337, 506, 507, 513, 512, 440, 441, 447, 446
338, 507, 508, 514, 513, 441, 442, 448, 447
339, 508, 509, 515, 514, 442, 443, 449, 448
340, 509, 510, 516, 515, 443, 444, 450, 449
341, 511, 512, 518, 517, 445, 446, 452, 451
342, 512, 513, 519, 518, 446, 447, 453, 452
343, 513, 514, 520, 519, 447, 448, 454, 453
344, 514, 515, 521, 520, 448, 449, 455, 454
345, 515, 516, 522, 521, 449, 450, 456, 455
346, 517, 518, 524, 523, 451, 452, 458, 457
347, 518, 519, 525, 524, 452, 453, 459, 458
348, 519, 520, 526, 525, 453, 454, 460, 459
349, 520, 521, 527, 526, 454, 455, 461, 460
350, 521, 522, 528, 527, 455, 456, 462, 461
351, 529, 530, 536, 535, 463, 464, 470, 469
352, 530, 531, 537, 536, 464, 465, 471, 470
353, 531, 532, 538, 537, 465, 466, 472, 471
354, 532, 533, 539, 538, 466, 467, 473, 472
355, 533, 534, 540, 539, 467, 468, 474, 473
356, 535, 536, 542, 541, 469, 470, 476, 475
357, 536, 537, 543, 542, 470, 471, 477, 476
358, 537, 538, 544, 543, 471, 472, 478, 477
359, 538, 539, 545, 544, 472, 473, 479, 478
360, 539, 540, 546, 545, 473, 474, 480, 479
361, 541, 542, 548, 547, 475, 476, 482, 481
362, 542, 543, 549, 548, 476, 477, 483, 482
363, 543, 544, 550, 549, 477, 478, 484, 483
364, 544, 545, 551, 550, 478, 479, 485, 484
365, 545, 546, 552, 551, 479, 480, 486, 485
366, 547, 548, 554, 553, 481, 482, 488, 487
367, 548, 549, 555, 554, 482, 483, 489, 488
368, 549, 550, 556, 555, 483, 484, 490, 489
369, 550, 551, 557, 556, 484, 485, 491, 490
370, 551, 552, 558, 557, 485, 486, 492, 491
371, 553, 554, 560, 559, 487, 488, 494, 493
372, 554, 555, 561, 560, 488, 489, 495, 494
373, 555, 556, 562, 561, 489, 490, 496, 495
374, 556, 557, 563, 562, 490, 491, 497, 496
375, 557, 558, 564, 563, 491, 492, 498, 497
376, 559, 560, 566, 565, 493, 494, 500, 499
377, 560, 561, 567, 566, 494, 495, 501, 500
378, 561, 562, 568, 567, 495, 496, 502, 501
379, 562, 563, 569, 568, 496, 497, 503, 502
380, 563, 564, 570, 569, 497, 498, 504, 503
381, 565, 566, 572, 571, 499, 500, 506, 505
382, 566, 567, 573, 572, 500, 501, 507, 506
383, 567, 568, 574, 573, 501, 502, 508, 507
384, 568, 569, 575, 574, 502, 503, 509, 508
385, 569, 570, 576, 575, 503, 504, 510, 509
386, 571, 572, 578, 577, 505, 506, 512, 511
387, 572, 573, 579, 578, 506, 507, 513, 512
388, 573, 574, 580, 579, 507, 508, 514, 513
389, 574, 575, 581, 580, 508, 509, 515, 514
390, 575, 576, 582, 581, 509, 510, 516, 515
391, 577, 578, 584, 583, 511, 512, 518, 517
392, 578, 579, 585, 584, 512, 513, 519, 518
393, 579, 580, 586, 585, 513, 514, 520, 519
394, 580, 581, 587, 586, 514, 515, 521, 520
395, 581, 582, 588, 587, 515, 516, 522, 521
396, 583, 584, 590, 589, 517, 518, 524, 523
397, 584, 585, 591, 590, 518, 519, 525, 524
398, 585, 586, 592, 591, 519, 520, 526, 525
399, 586, 587, 593, 592, 520, 521, 527, 526
400, 587, 588, 594, 593, 521, 522, 528, 527
401, 595, 596, 602, 601, 529, 530, 536, 535
402, 596, 597, 603, 602, 530, 531, 537, 536
403, 597, 598, 604, 603, 531, 532, 538, 537
404, 598, 599, 605, 604, 532, 533, 539, 538
405, 599, 600, 606, 605, 533, 534, 540, 539
406, 601, 602, 608, 607, 535, 536, 542, 541
407, 602, 603, 609, 608, 536, 537, 543, 542
408, 603, 604, 610, 609, 537, 538, 544, 543
409, 604, 605, 611, 610, 538, 539, 545, 544
410, 605, 606, 612, 611, 539, 540, 546, 545
411, 607, 608, 614, 613, 541, 542, 548, 547
412, 608, 609, 615, 614, 542, 543, 549, 548
413, 609, 610, 616, 615, 543, 544, 550, 549
414, 610, 611, 617, 616, 544, 545, 551, 550
415, 611, 612, 618, 617, 545, 546, 552, 551
416, 613, 614, 620, 619, 547, 548, 554, 553
417, 614, 615, 621, 620, 548, 549, 555, 554
418, 615, 616, 622, 621, 549, 550, 556, 555
419, 616, 617, 623, 622, 550, 551, 557, 556
420, 617, 618, 624, 623, 551, 552, 558, 557
421, 619, 620, 626, 625, 553, 554, 560, 559
422, 620, 621, 627, 626, 554, 555, 561, 560
423, 621, 622, 628, 627, 555, 556, 562, 561
424, 622, 623, 629, 628, 556, 557, 563, 562
425, 623, 624, 630, 629, 557, 558, 564, 563
426, 625, 626, 632, 631, 559, 560, 566, 565
427, 626, 627, 633, 632, 560, 561, 567, 566
428, 627, 628, 634, 633, 561, 562, 568, 567
429, 628, 629, 635, 634, 562, 563, 569, 568
430, 629, 630, 636, 635, 563, 564, 570, 569
431, 631, 632, 638, 637, 565, 566, 572, 571
432, 632, 633, 639, 638, 566, 567, 573, 572
433, 633, 634, 640, 639, 567, 568, 574, 573
434, 634, 635, 641, 640, 568, 569, 575, 574
435, 635, 636, 642, 641, 569, 570, 576, 575
436, 637, 638, 644, 643, 571, 572, 578, 577
437, 638, 639, 645, 644, 572, 573, 579, 578
438, 639, 640, 646, 645, 573, 574, 580, 579
439, 640, 641, 647, 646, 574, 575, 581, 580
440, 641, 642, 648, 647, 575, 576, 582, 581
441, 643, 644, 650, 649, 577, 578, 584, 583
442, 644, 645, 651, 650, 578, 579, 585, 584
443, 645, 646, 652, 651, 579, 580, 586, 585
444, 646, 647, 653, 652, 580, 581, 587, 586
445, 647, 648, 654, 653, 581, 582, 588, 587
446, 649, 650, 656, 655, 583, 584, 590, 589
447, 650, 651, 657, 656, 584, 585, 591, 590
448, 651, 652, 658, 657, 585, 586, 592, 591
449, 652, 653, 659, 658, 586, 587, 593, 592
450, 653, 654, 660, 659, 587, 588, 594, 593
451, 661, 662, 668, 667, 595, 596, 602, 601
452, 662, 663, 669, 668, 596, 597, 603, 602
453, 663, 664, 670, 669, 597, 598, 604, 603
454, 664, 665, 671, 670, 598, 599, 605, 604
455, 665, 666, 672, 671, 599, 600, 606, 605
456, 667, 668, 674, 673, 601, 602, 608, 607
457, 668, 669, 675, 674, 602, 603, 609, 608
458, 669, 670, 676, 675, 603, 604, 610, 609
459, 670, 671, 677, 676, 604, 605, 611, 610
460, 671, 672, 678, 677, 605, 606, 612, 611
461, 673, 674, 680, 679, 607, 608, 614, 613
462, 674, 675, 681, 680, 608, 609, 615, 614
463, 675, 676, 682, 681, 609, 610, 616, 615
464, 676, 677, 683, 682, 610, 611, 617, 616
465, 677, 678, 684, 683, 611, 612, 618, 617
466, 679, 680, 686, 685, 613, 614, 620, 619
467, 680, 681, 687, 686, 614, 615, 621, 620
468, 681, 682, 688, 687, 615, 616, 622, 621
469, 682, 683, 689, 688, 616, 617, 623, 622
470, 683, 684, 690, 689, 617, 618, 624, 623
471, 685, 686, 692, 691, 619, 620, 626, 625
472, 686, 687, 693, 692, 620, 621, 627, 626
473, 687, 688, 694, 693, 621, 622, 628, 627
474, 688, 689, 695, 694, 622, 623, 629, 628
475, 689, 690, 696, 695, 623, 624, 630, 629
476, 691, 692, 698, 697, 625, 626, 632, 631
477, 692, 693, 699, 698, 626, 627, 633, 632
478, 693, 694, 700, 699, 627, 628, 634, 633
479, 694, 695, 701, 700, 628, 629, 635, 634
480, 695, 696, 702, 701, 629, 630, 636, 635
481, 697, 698, 704, 703, 631, 632, 638, 637
482, 698, 699, 705, 704, 632, 633, 639, 638
483, 699, 700, 706, 705, 633, 634, 640, 639
484, 700, 701, 707, 706, 634, 635, 641, 640
485, 701, 702, 708, 707, 635, 636, 642, 641
486, 703, 704, 710, 709, 637, 638, 644, 643
487, 704, 705, 711, 710, 638, 639, 645, 644
488, 705, 706, 712, 711, 639, 640, 646, 645
489, 706, 707, 713, 712, 640, 641, 647, 646
490, 707, 708, 714, 713, 641, 642, 648, 647
491, 709, 710, 716, 715, 643, 644, 650, 649
492, 710, 711, 717, 716, 644, 645, 651, 650
493, 711, 712, 718, 717, 645, 646, 652, 651
494, 712, 713, 719, 718, 646, 647, 653, 652
495, 713, 714, 720, 719, 647, 648, 654, 653
496, 715, 716, 722, 721, 649, 650, 656, 655
497, 716, 717, 723, 722, 650, 651, 657, 656
498, 717, 718, 724, 723, 651, 652, 658, 657
499, 718, 719, 725, 724, 652, 653, 659, 658
500, 719, 720, 726, 725, 653, 654, 660, 659
*Nset, nset=ACTIVE_LAYER_ALL, generate
   1,  726,    1
*Elset, elset=ACTIVE_LAYER_ALL, generate
   1,  500,    1
*Nset, nset=ACTIVE_TOP_NODES, generate
   1,  721,    6
*Nset, nset=ACTIVE_INTERFACE_NODES, generate
   6,  726,    6
*Elset, elset=_ACTIVE_TOP_S6, internal, generate
   1,  496,    5
*Surface, type=ELEMENT, name=ACTIVE_TOP
_ACTIVE_TOP_S6, S6
*Elset, elset=_ACTIVE_INTERFACE_S4, internal, generate
   5,  500,    5
*Surface, type=ELEMENT, name=ACTIVE_INTERFACE
_ACTIVE_INTERFACE_S4, S4
** Section: ActiveLayerSection
*Solid Section, elset=ACTIVE_LAYER_ALL, material=Active_Layer
,
*End Part
**  
*Part, name=AlCollector
*Node
      1,          0.5, -0.0579999983,           1.
      2,          0.5, -0.0665000007,           1.
      3,          0.5, -0.075000003,           1.
      4,          0.5, -0.0579999983,  0.899999976
      5,          0.5, -0.0665000007,  0.899999976
      6,          0.5, -0.075000003,  0.899999976
      7,          0.5, -0.0579999983,  0.800000012
      8,          0.5, -0.0665000007,  0.800000012
      9,          0.5, -0.075000003,  0.800000012
     10,          0.5, -0.0579999983,  0.699999988
     11,          0.5, -0.0665000007,  0.699999988
     12,          0.5, -0.075000003,  0.699999988
     13,          0.5, -0.0579999983,  0.600000024
     14,          0.5, -0.0665000007,  0.600000024
     15,          0.5, -0.075000003,  0.600000024
     16,          0.5, -0.0579999983,          0.5
     17,          0.5, -0.0665000007,          0.5
     18,          0.5, -0.075000003,          0.5
     19,          0.5, -0.0579999983,  0.400000006
     20,          0.5, -0.0665000007,  0.400000006
     21,          0.5, -0.075000003,  0.400000006
     22,          0.5, -0.0579999983,  0.300000012
     23,          0.5, -0.0665000007,  0.300000012
     24,          0.5, -0.075000003,  0.300000012
     25,          0.5, -0.0579999983,  0.200000003
     26,          0.5, -0.0665000007,  0.200000003
     27,          0.5, -0.075000003,  0.200000003
     28,          0.5, -0.0579999983,  0.100000001
     29,          0.5, -0.0665000007,  0.100000001
     30,          0.5, -0.075000003,  0.100000001
     31,          0.5, -0.0579999983,           0.
     32,          0.5, -0.0665000007,           0.
     33,          0.5, -0.075000003,           0.
     34,  0.400000006, -0.0579999983,           1.
     35,  0.400000006, -0.0665000007,           1.
     36,  0.400000006, -0.075000003,           1.
     37,  0.400000006, -0.0579999983,  0.899999976
     38,  0.400000006, -0.0665000007,  0.899999976
     39,  0.400000006, -0.075000003,  0.899999976
     40,  0.400000006, -0.0579999983,  0.800000012
     41,  0.400000006, -0.0665000007,  0.800000012
     42,  0.400000006, -0.075000003,  0.800000012
     43,  0.400000006, -0.0579999983,  0.699999988
     44,  0.400000006, -0.0665000007,  0.699999988
     45,  0.400000006, -0.075000003,  0.699999988
     46,  0.400000006, -0.0579999983,  0.600000024
     47,  0.400000006, -0.0665000007,  0.600000024
     48,  0.400000006, -0.075000003,  0.600000024
     49,  0.400000006, -0.0579999983,          0.5
     50,  0.400000006, -0.0665000007,          0.5
     51,  0.400000006, -0.075000003,          0.5
     52,  0.400000006, -0.0579999983,  0.400000006
     53,  0.400000006, -0.0665000007,  0.400000006
     54,  0.400000006, -0.075000003,  0.400000006
     55,  0.400000006, -0.0579999983,  0.300000012
     56,  0.400000006, -0.0665000007,  0.300000012
     57,  0.400000006, -0.075000003,  0.300000012
     58,  0.400000006, -0.0579999983,  0.200000003
     59,  0.400000006, -0.0665000007,  0.200000003
     60,  0.400000006, -0.075000003,  0.200000003
     61,  0.400000006, -0.0579999983,  0.100000001
     62,  0.400000006, -0.0665000007,  0.100000001
     63,  0.400000006, -0.075000003,  0.100000001
     64,  0.400000006, -0.0579999983,           0.
     65,  0.400000006, -0.0665000007,           0.
     66,  0.400000006, -0.075000003,           0.
     67,  0.300000012, -0.0579999983,           1.
     68,  0.300000012, -0.0665000007,           1.
     69,  0.300000012, -0.075000003,           1.
     70,  0.300000012, -0.0579999983,  0.899999976
     71,  0.300000012, -0.0665000007,  0.899999976
     72,  0.300000012, -0.075000003,  0.899999976
     73,  0.300000012, -0.0579999983,  0.800000012
     74,  0.300000012, -0.0665000007,  0.800000012
     75,  0.300000012, -0.075000003,  0.800000012
     76,  0.300000012, -0.0579999983,  0.699999988
     77,  0.300000012, -0.0665000007,  0.699999988
     78,  0.300000012, -0.075000003,  0.699999988
     79,  0.300000012, -0.0579999983,  0.600000024
     80,  0.300000012, -0.0665000007,  0.600000024
     81,  0.300000012, -0.075000003,  0.600000024
     82,  0.300000012, -0.0579999983,          0.5
     83,  0.300000012, -0.0665000007,          0.5
     84,  0.300000012, -0.075000003,          0.5
     85,  0.300000012, -0.0579999983,  0.400000006
     86,  0.300000012, -0.0665000007,  0.400000006
     87,  0.300000012, -0.075000003,  0.400000006
     88,  0.300000012, -0.0579999983,  0.300000012
     89,  0.300000012, -0.0665000007,  0.300000012
     90,  0.300000012, -0.075000003,  0.300000012
     91,  0.300000012, -0.0579999983,  0.200000003
     92,  0.300000012, -0.0665000007,  0.200000003
     93,  0.300000012, -0.075000003,  0.200000003
     94,  0.300000012, -0.0579999983,  0.100000001
     95,  0.300000012, -0.0665000007,  0.100000001
     96,  0.300000012, -0.075000003,  0.100000001
     97,  0.300000012, -0.0579999983,           0.
     98,  0.300000012, -0.0665000007,           0.
     99,  0.300000012, -0.075000003,           0.
    100,  0.200000003, -0.0579999983,           1.
    101,  0.200000003, -0.0665000007,           1.
    102,  0.200000003, -0.075000003,           1.
    103,  0.200000003, -0.0579999983,  0.899999976
    104,  0.200000003, -0.0665000007,  0.899999976
    105,  0.200000003, -0.075000003,  0.899999976
    106,  0.200000003, -0.0579999983,  0.800000012
    107,  0.200000003, -0.0665000007,  0.800000012
    108,  0.200000003, -0.075000003,  0.800000012
    109,  0.200000003, -0.0579999983,  0.699999988
    110,  0.200000003, -0.0665000007,  0.699999988
    111,  0.200000003, -0.075000003,  0.699999988
    112,  0.200000003, -0.0579999983,  0.600000024
    113,  0.200000003, -0.0665000007,  0.600000024
    114,  0.200000003, -0.075000003,  0.600000024
    115,  0.200000003, -0.0579999983,          0.5
    116,  0.200000003, -0.0665000007,          0.5
    117,  0.200000003, -0.075000003,          0.5
    118,  0.200000003, -0.0579999983,  0.400000006
    119,  0.200000003, -0.0665000007,  0.400000006
    120,  0.200000003, -0.075000003,  0.400000006
    121,  0.200000003, -0.0579999983,  0.300000012
    122,  0.200000003, -0.0665000007,  0.300000012
    123,  0.200000003, -0.075000003,  0.300000012
    124,  0.200000003, -0.0579999983,  0.200000003
    125,  0.200000003, -0.0665000007,  0.200000003
    126,  0.200000003, -0.075000003,  0.200000003
    127,  0.200000003, -0.0579999983,  0.100000001
    128,  0.200000003, -0.0665000007,  0.100000001
    129,  0.200000003, -0.075000003,  0.100000001
    130,  0.200000003, -0.0579999983,           0.
    131,  0.200000003, -0.0665000007,           0.
    132,  0.200000003, -0.075000003,           0.
    133,  0.100000001, -0.0579999983,           1.
    134,  0.100000001, -0.0665000007,           1.
    135,  0.100000001, -0.075000003,           1.
    136,  0.100000001, -0.0579999983,  0.899999976
    137,  0.100000001, -0.0665000007,  0.899999976
    138,  0.100000001, -0.075000003,  0.899999976
    139,  0.100000001, -0.0579999983,  0.800000012
    140,  0.100000001, -0.0665000007,  0.800000012
    141,  0.100000001, -0.075000003,  0.800000012
    142,  0.100000001, -0.0579999983,  0.699999988
    143,  0.100000001, -0.0665000007,  0.699999988
    144,  0.100000001, -0.075000003,  0.699999988
    145,  0.100000001, -0.0579999983,  0.600000024
    146,  0.100000001, -0.0665000007,  0.600000024
    147,  0.100000001, -0.075000003,  0.600000024
    148,  0.100000001, -0.0579999983,          0.5
    149,  0.100000001, -0.0665000007,          0.5
    150,  0.100000001, -0.075000003,          0.5
    151,  0.100000001, -0.0579999983,  0.400000006
    152,  0.100000001, -0.0665000007,  0.400000006
    153,  0.100000001, -0.075000003,  0.400000006
    154,  0.100000001, -0.0579999983,  0.300000012
    155,  0.100000001, -0.0665000007,  0.300000012
    156,  0.100000001, -0.075000003,  0.300000012
    157,  0.100000001, -0.0579999983,  0.200000003
    158,  0.100000001, -0.0665000007,  0.200000003
    159,  0.100000001, -0.075000003,  0.200000003
    160,  0.100000001, -0.0579999983,  0.100000001
    161,  0.100000001, -0.0665000007,  0.100000001
    162,  0.100000001, -0.075000003,  0.100000001
    163,  0.100000001, -0.0579999983,           0.
    164,  0.100000001, -0.0665000007,           0.
    165,  0.100000001, -0.075000003,           0.
    166,           0., -0.0579999983,           1.
    167,           0., -0.0665000007,           1.
    168,           0., -0.075000003,           1.
    169,           0., -0.0579999983,  0.899999976
    170,           0., -0.0665000007,  0.899999976
    171,           0., -0.075000003,  0.899999976
    172,           0., -0.0579999983,  0.800000012
    173,           0., -0.0665000007,  0.800000012
    174,           0., -0.075000003,  0.800000012
    175,           0., -0.0579999983,  0.699999988
    176,           0., -0.0665000007,  0.699999988
    177,           0., -0.075000003,  0.699999988
    178,           0., -0.0579999983,  0.600000024
    179,           0., -0.0665000007,  0.600000024
    180,           0., -0.075000003,  0.600000024
    181,           0., -0.0579999983,          0.5
    182,           0., -0.0665000007,          0.5
    183,           0., -0.075000003,          0.5
    184,           0., -0.0579999983,  0.400000006
    185,           0., -0.0665000007,  0.400000006
    186,           0., -0.075000003,  0.400000006
    187,           0., -0.0579999983,  0.300000012
    188,           0., -0.0665000007,  0.300000012
    189,           0., -0.075000003,  0.300000012
    190,           0., -0.0579999983,  0.200000003
    191,           0., -0.0665000007,  0.200000003
    192,           0., -0.075000003,  0.200000003
    193,           0., -0.0579999983,  0.100000001
    194,           0., -0.0665000007,  0.100000001
    195,           0., -0.075000003,  0.100000001
    196,           0., -0.0579999983,           0.
    197,           0., -0.0665000007,           0.
    198,           0., -0.075000003,           0.
    199, -0.100000001, -0.0579999983,           1.
    200, -0.100000001, -0.0665000007,           1.
    201, -0.100000001, -0.075000003,           1.
    202, -0.100000001, -0.0579999983,  0.899999976
    203, -0.100000001, -0.0665000007,  0.899999976
    204, -0.100000001, -0.075000003,  0.899999976
    205, -0.100000001, -0.0579999983,  0.800000012
    206, -0.100000001, -0.0665000007,  0.800000012
    207, -0.100000001, -0.075000003,  0.800000012
    208, -0.100000001, -0.0579999983,  0.699999988
    209, -0.100000001, -0.0665000007,  0.699999988
    210, -0.100000001, -0.075000003,  0.699999988
    211, -0.100000001, -0.0579999983,  0.600000024
    212, -0.100000001, -0.0665000007,  0.600000024
    213, -0.100000001, -0.075000003,  0.600000024
    214, -0.100000001, -0.0579999983,          0.5
    215, -0.100000001, -0.0665000007,          0.5
    216, -0.100000001, -0.075000003,          0.5
    217, -0.100000001, -0.0579999983,  0.400000006
    218, -0.100000001, -0.0665000007,  0.400000006
    219, -0.100000001, -0.075000003,  0.400000006
    220, -0.100000001, -0.0579999983,  0.300000012
    221, -0.100000001, -0.0665000007,  0.300000012
    222, -0.100000001, -0.075000003,  0.300000012
    223, -0.100000001, -0.0579999983,  0.200000003
    224, -0.100000001, -0.0665000007,  0.200000003
    225, -0.100000001, -0.075000003,  0.200000003
    226, -0.100000001, -0.0579999983,  0.100000001
    227, -0.100000001, -0.0665000007,  0.100000001
    228, -0.100000001, -0.075000003,  0.100000001
    229, -0.100000001, -0.0579999983,           0.
    230, -0.100000001, -0.0665000007,           0.
    231, -0.100000001, -0.075000003,           0.
    232, -0.200000003, -0.0579999983,           1.
    233, -0.200000003, -0.0665000007,           1.
    234, -0.200000003, -0.075000003,           1.
    235, -0.200000003, -0.0579999983,  0.899999976
    236, -0.200000003, -0.0665000007,  0.899999976
    237, -0.200000003, -0.075000003,  0.899999976
    238, -0.200000003, -0.0579999983,  0.800000012
    239, -0.200000003, -0.0665000007,  0.800000012
    240, -0.200000003, -0.075000003,  0.800000012
    241, -0.200000003, -0.0579999983,  0.699999988
    242, -0.200000003, -0.0665000007,  0.699999988
    243, -0.200000003, -0.075000003,  0.699999988
    244, -0.200000003, -0.0579999983,  0.600000024
    245, -0.200000003, -0.0665000007,  0.600000024
    246, -0.200000003, -0.075000003,  0.600000024
    247, -0.200000003, -0.0579999983,          0.5
    248, -0.200000003, -0.0665000007,          0.5
    249, -0.200000003, -0.075000003,          0.5
    250, -0.200000003, -0.0579999983,  0.400000006
    251, -0.200000003, -0.0665000007,  0.400000006
    252, -0.200000003, -0.075000003,  0.400000006
    253, -0.200000003, -0.0579999983,  0.300000012
    254, -0.200000003, -0.0665000007,  0.300000012
    255, -0.200000003, -0.075000003,  0.300000012
    256, -0.200000003, -0.0579999983,  0.200000003
    257, -0.200000003, -0.0665000007,  0.200000003
    258, -0.200000003, -0.075000003,  0.200000003
    259, -0.200000003, -0.0579999983,  0.100000001
    260, -0.200000003, -0.0665000007,  0.100000001
    261, -0.200000003, -0.075000003,  0.100000001
    262, -0.200000003, -0.0579999983,           0.
    263, -0.200000003, -0.0665000007,           0.
    264, -0.200000003, -0.075000003,           0.
    265, -0.300000012, -0.0579999983,           1.
    266, -0.300000012, -0.0665000007,           1.
    267, -0.300000012, -0.075000003,           1.
    268, -0.300000012, -0.0579999983,  0.899999976
    269, -0.300000012, -0.0665000007,  0.899999976
    270, -0.300000012, -0.075000003,  0.899999976
    271, -0.300000012, -0.0579999983,  0.800000012
    272, -0.300000012, -0.0665000007,  0.800000012
    273, -0.300000012, -0.075000003,  0.800000012
    274, -0.300000012, -0.0579999983,  0.699999988
    275, -0.300000012, -0.0665000007,  0.699999988
    276, -0.300000012, -0.075000003,  0.699999988
    277, -0.300000012, -0.0579999983,  0.600000024
    278, -0.300000012, -0.0665000007,  0.600000024
    279, -0.300000012, -0.075000003,  0.600000024
    280, -0.300000012, -0.0579999983,          0.5
    281, -0.300000012, -0.0665000007,          0.5
    282, -0.300000012, -0.075000003,          0.5
    283, -0.300000012, -0.0579999983,  0.400000006
    284, -0.300000012, -0.0665000007,  0.400000006
    285, -0.300000012, -0.075000003,  0.400000006
    286, -0.300000012, -0.0579999983,  0.300000012
    287, -0.300000012, -0.0665000007,  0.300000012
    288, -0.300000012, -0.075000003,  0.300000012
    289, -0.300000012, -0.0579999983,  0.200000003
    290, -0.300000012, -0.0665000007,  0.200000003
    291, -0.300000012, -0.075000003,  0.200000003
    292, -0.300000012, -0.0579999983,  0.100000001
    293, -0.300000012, -0.0665000007,  0.100000001
    294, -0.300000012, -0.075000003,  0.100000001
    295, -0.300000012, -0.0579999983,           0.
    296, -0.300000012, -0.0665000007,           0.
    297, -0.300000012, -0.075000003,           0.
    298, -0.400000006, -0.0579999983,           1.
    299, -0.400000006, -0.0665000007,           1.
    300, -0.400000006, -0.075000003,           1.
    301, -0.400000006, -0.0579999983,  0.899999976
    302, -0.400000006, -0.0665000007,  0.899999976
    303, -0.400000006, -0.075000003,  0.899999976
    304, -0.400000006, -0.0579999983,  0.800000012
    305, -0.400000006, -0.0665000007,  0.800000012
    306, -0.400000006, -0.075000003,  0.800000012
    307, -0.400000006, -0.0579999983,  0.699999988
    308, -0.400000006, -0.0665000007,  0.699999988
    309, -0.400000006, -0.075000003,  0.699999988
    310, -0.400000006, -0.0579999983,  0.600000024
    311, -0.400000006, -0.0665000007,  0.600000024
    312, -0.400000006, -0.075000003,  0.600000024
    313, -0.400000006, -0.0579999983,          0.5
    314, -0.400000006, -0.0665000007,          0.5
    315, -0.400000006, -0.075000003,          0.5
    316, -0.400000006, -0.0579999983,  0.400000006
    317, -0.400000006, -0.0665000007,  0.400000006
    318, -0.400000006, -0.075000003,  0.400000006
    319, -0.400000006, -0.0579999983,  0.300000012
    320, -0.400000006, -0.0665000007,  0.300000012
    321, -0.400000006, -0.075000003,  0.300000012
    322, -0.400000006, -0.0579999983,  0.200000003
    323, -0.400000006, -0.0665000007,  0.200000003
    324, -0.400000006, -0.075000003,  0.200000003
    325, -0.400000006, -0.0579999983,  0.100000001
    326, -0.400000006, -0.0665000007,  0.100000001
    327, -0.400000006, -0.075000003,  0.100000001
    328, -0.400000006, -0.0579999983,           0.
    329, -0.400000006, -0.0665000007,           0.
    330, -0.400000006, -0.075000003,           0.
    331,         -0.5, -0.0579999983,           1.
    332,         -0.5, -0.0665000007,           1.
    333,         -0.5, -0.075000003,           1.
    334,         -0.5, -0.0579999983,  0.899999976
    335,         -0.5, -0.0665000007,  0.899999976
    336,         -0.5, -0.075000003,  0.899999976
    337,         -0.5, -0.0579999983,  0.800000012
    338,         -0.5, -0.0665000007,  0.800000012
    339,         -0.5, -0.075000003,  0.800000012
    340,         -0.5, -0.0579999983,  0.699999988
    341,         -0.5, -0.0665000007,  0.699999988
    342,         -0.5, -0.075000003,  0.699999988
    343,         -0.5, -0.0579999983,  0.600000024
    344,         -0.5, -0.0665000007,  0.600000024
    345,         -0.5, -0.075000003,  0.600000024
    346,         -0.5, -0.0579999983,          0.5
    347,         -0.5, -0.0665000007,          0.5
    348,         -0.5, -0.075000003,          0.5
    349,         -0.5, -0.0579999983,  0.400000006
    350,         -0.5, -0.0665000007,  0.400000006
    351,         -0.5, -0.075000003,  0.400000006
    352,         -0.5, -0.0579999983,  0.300000012
    353,         -0.5, -0.0665000007,  0.300000012
    354,         -0.5, -0.075000003,  0.300000012
    355,         -0.5, -0.0579999983,  0.200000003
    356,         -0.5, -0.0665000007,  0.200000003
    357,         -0.5, -0.075000003,  0.200000003
    358,         -0.5, -0.0579999983,  0.100000001
    359,         -0.5, -0.0665000007,  0.100000001
    360,         -0.5, -0.075000003,  0.100000001
    361,         -0.5, -0.0579999983,           0.
    362,         -0.5, -0.0665000007,           0.
    363,         -0.5, -0.075000003,           0.
*Element, type=C3D8R
  1,  34,  35,  38,  37,   1,   2,   5,   4
  2,  35,  36,  39,  38,   2,   3,   6,   5
  3,  37,  38,  41,  40,   4,   5,   8,   7
  4,  38,  39,  42,  41,   5,   6,   9,   8
  5,  40,  41,  44,  43,   7,   8,  11,  10
  6,  41,  42,  45,  44,   8,   9,  12,  11
  7,  43,  44,  47,  46,  10,  11,  14,  13
  8,  44,  45,  48,  47,  11,  12,  15,  14
  9,  46,  47,  50,  49,  13,  14,  17,  16
 10,  47,  48,  51,  50,  14,  15,  18,  17
 11,  49,  50,  53,  52,  16,  17,  20,  19
 12,  50,  51,  54,  53,  17,  18,  21,  20
 13,  52,  53,  56,  55,  19,  20,  23,  22
 14,  53,  54,  57,  56,  20,  21,  24,  23
 15,  55,  56,  59,  58,  22,  23,  26,  25
 16,  56,  57,  60,  59,  23,  24,  27,  26
 17,  58,  59,  62,  61,  25,  26,  29,  28
 18,  59,  60,  63,  62,  26,  27,  30,  29
 19,  61,  62,  65,  64,  28,  29,  32,  31
 20,  62,  63,  66,  65,  29,  30,  33,  32
 21,  67,  68,  71,  70,  34,  35,  38,  37
 22,  68,  69,  72,  71,  35,  36,  39,  38
 23,  70,  71,  74,  73,  37,  38,  41,  40
 24,  71,  72,  75,  74,  38,  39,  42,  41
 25,  73,  74,  77,  76,  40,  41,  44,  43
 26,  74,  75,  78,  77,  41,  42,  45,  44
 27,  76,  77,  80,  79,  43,  44,  47,  46
 28,  77,  78,  81,  80,  44,  45,  48,  47
 29,  79,  80,  83,  82,  46,  47,  50,  49
 30,  80,  81,  84,  83,  47,  48,  51,  50
 31,  82,  83,  86,  85,  49,  50,  53,  52
 32,  83,  84,  87,  86,  50,  51,  54,  53
 33,  85,  86,  89,  88,  52,  53,  56,  55
 34,  86,  87,  90,  89,  53,  54,  57,  56
 35,  88,  89,  92,  91,  55,  56,  59,  58
 36,  89,  90,  93,  92,  56,  57,  60,  59
 37,  91,  92,  95,  94,  58,  59,  62,  61
 38,  92,  93,  96,  95,  59,  60,  63,  62
 39,  94,  95,  98,  97,  61,  62,  65,  64
 40,  95,  96,  99,  98,  62,  63,  66,  65
 41, 100, 101, 104, 103,  67,  68,  71,  70
 42, 101, 102, 105, 104,  68,  69,  72,  71
 43, 103, 104, 107, 106,  70,  71,  74,  73
 44, 104, 105, 108, 107,  71,  72,  75,  74
 45, 106, 107, 110, 109,  73,  74,  77,  76
 46, 107, 108, 111, 110,  74,  75,  78,  77
 47, 109, 110, 113, 112,  76,  77,  80,  79
 48, 110, 111, 114, 113,  77,  78,  81,  80
 49, 112, 113, 116, 115,  79,  80,  83,  82
 50, 113, 114, 117, 116,  80,  81,  84,  83
 51, 115, 116, 119, 118,  82,  83,  86,  85
 52, 116, 117, 120, 119,  83,  84,  87,  86
 53, 118, 119, 122, 121,  85,  86,  89,  88
 54, 119, 120, 123, 122,  86,  87,  90,  89
 55, 121, 122, 125, 124,  88,  89,  92,  91
 56, 122, 123, 126, 125,  89,  90,  93,  92
 57, 124, 125, 128, 127,  91,  92,  95,  94
 58, 125, 126, 129, 128,  92,  93,  96,  95
 59, 127, 128, 131, 130,  94,  95,  98,  97
 60, 128, 129, 132, 131,  95,  96,  99,  98
 61, 133, 134, 137, 136, 100, 101, 104, 103
 62, 134, 135, 138, 137, 101, 102, 105, 104
 63, 136, 137, 140, 139, 103, 104, 107, 106
 64, 137, 138, 141, 140, 104, 105, 108, 107
 65, 139, 140, 143, 142, 106, 107, 110, 109
 66, 140, 141, 144, 143, 107, 108, 111, 110
 67, 142, 143, 146, 145, 109, 110, 113, 112
 68, 143, 144, 147, 146, 110, 111, 114, 113
 69, 145, 146, 149, 148, 112, 113, 116, 115
 70, 146, 147, 150, 149, 113, 114, 117, 116
 71, 148, 149, 152, 151, 115, 116, 119, 118
 72, 149, 150, 153, 152, 116, 117, 120, 119
 73, 151, 152, 155, 154, 118, 119, 122, 121
 74, 152, 153, 156, 155, 119, 120, 123, 122
 75, 154, 155, 158, 157, 121, 122, 125, 124
 76, 155, 156, 159, 158, 122, 123, 126, 125
 77, 157, 158, 161, 160, 124, 125, 128, 127
 78, 158, 159, 162, 161, 125, 126, 129, 128
 79, 160, 161, 164, 163, 127, 128, 131, 130
 80, 161, 162, 165, 164, 128, 129, 132, 131
 81, 166, 167, 170, 169, 133, 134, 137, 136
 82, 167, 168, 171, 170, 134, 135, 138, 137
 83, 169, 170, 173, 172, 136, 137, 140, 139
 84, 170, 171, 174, 173, 137, 138, 141, 140
 85, 172, 173, 176, 175, 139, 140, 143, 142
 86, 173, 174, 177, 176, 140, 141, 144, 143
 87, 175, 176, 179, 178, 142, 143, 146, 145
 88, 176, 177, 180, 179, 143, 144, 147, 146
 89, 178, 179, 182, 181, 145, 146, 149, 148
 90, 179, 180, 183, 182, 146, 147, 150, 149
 91, 181, 182, 185, 184, 148, 149, 152, 151
 92, 182, 183, 186, 185, 149, 150, 153, 152
 93, 184, 185, 188, 187, 151, 152, 155, 154
 94, 185, 186, 189, 188, 152, 153, 156, 155
 95, 187, 188, 191, 190, 154, 155, 158, 157
 96, 188, 189, 192, 191, 155, 156, 159, 158
 97, 190, 191, 194, 193, 157, 158, 161, 160
 98, 191, 192, 195, 194, 158, 159, 162, 161
 99, 193, 194, 197, 196, 160, 161, 164, 163
100, 194, 195, 198, 197, 161, 162, 165, 164
101, 199, 200, 203, 202, 166, 167, 170, 169
102, 200, 201, 204, 203, 167, 168, 171, 170
103, 202, 203, 206, 205, 169, 170, 173, 172
104, 203, 204, 207, 206, 170, 171, 174, 173
105, 205, 206, 209, 208, 172, 173, 176, 175
106, 206, 207, 210, 209, 173, 174, 177, 176
107, 208, 209, 212, 211, 175, 176, 179, 178
108, 209, 210, 213, 212, 176, 177, 180, 179
109, 211, 212, 215, 214, 178, 179, 182, 181
110, 212, 213, 216, 215, 179, 180, 183, 182
111, 214, 215, 218, 217, 181, 182, 185, 184
112, 215, 216, 219, 218, 182, 183, 186, 185
113, 217, 218, 221, 220, 184, 185, 188, 187
114, 218, 219, 222, 221, 185, 186, 189, 188
115, 220, 221, 224, 223, 187, 188, 191, 190
116, 221, 222, 225, 224, 188, 189, 192, 191
117, 223, 224, 227, 226, 190, 191, 194, 193
118, 224, 225, 228, 227, 191, 192, 195, 194
119, 226, 227, 230, 229, 193, 194, 197, 196
120, 227, 228, 231, 230, 194, 195, 198, 197
121, 232, 233, 236, 235, 199, 200, 203, 202
122, 233, 234, 237, 236, 200, 201, 204, 203
123, 235, 236, 239, 238, 202, 203, 206, 205
124, 236, 237, 240, 239, 203, 204, 207, 206
125, 238, 239, 242, 241, 205, 206, 209, 208
126, 239, 240, 243, 242, 206, 207, 210, 209
127, 241, 242, 245, 244, 208, 209, 212, 211
128, 242, 243, 246, 245, 209, 210, 213, 212
129, 244, 245, 248, 247, 211, 212, 215, 214
130, 245, 246, 249, 248, 212, 213, 216, 215
131, 247, 248, 251, 250, 214, 215, 218, 217
132, 248, 249, 252, 251, 215, 216, 219, 218
133, 250, 251, 254, 253, 217, 218, 221, 220
134, 251, 252, 255, 254, 218, 219, 222, 221
135, 253, 254, 257, 256, 220, 221, 224, 223
136, 254, 255, 258, 257, 221, 222, 225, 224
137, 256, 257, 260, 259, 223, 224, 227, 226
138, 257, 258, 261, 260, 224, 225, 228, 227
139, 259, 260, 263, 262, 226, 227, 230, 229
140, 260, 261, 264, 263, 227, 228, 231, 230
141, 265, 266, 269, 268, 232, 233, 236, 235
142, 266, 267, 270, 269, 233, 234, 237, 236
143, 268, 269, 272, 271, 235, 236, 239, 238
144, 269, 270, 273, 272, 236, 237, 240, 239
145, 271, 272, 275, 274, 238, 239, 242, 241
146, 272, 273, 276, 275, 239, 240, 243, 242
147, 274, 275, 278, 277, 241, 242, 245, 244
148, 275, 276, 279, 278, 242, 243, 246, 245
149, 277, 278, 281, 280, 244, 245, 248, 247
150, 278, 279, 282, 281, 245, 246, 249, 248
151, 280, 281, 284, 283, 247, 248, 251, 250
152, 281, 282, 285, 284, 248, 249, 252, 251
153, 283, 284, 287, 286, 250, 251, 254, 253
154, 284, 285, 288, 287, 251, 252, 255, 254
155, 286, 287, 290, 289, 253, 254, 257, 256
156, 287, 288, 291, 290, 254, 255, 258, 257
157, 289, 290, 293, 292, 256, 257, 260, 259
158, 290, 291, 294, 293, 257, 258, 261, 260
159, 292, 293, 296, 295, 259, 260, 263, 262
160, 293, 294, 297, 296, 260, 261, 264, 263
161, 298, 299, 302, 301, 265, 266, 269, 268
162, 299, 300, 303, 302, 266, 267, 270, 269
163, 301, 302, 305, 304, 268, 269, 272, 271
164, 302, 303, 306, 305, 269, 270, 273, 272
165, 304, 305, 308, 307, 271, 272, 275, 274
166, 305, 306, 309, 308, 272, 273, 276, 275
167, 307, 308, 311, 310, 274, 275, 278, 277
168, 308, 309, 312, 311, 275, 276, 279, 278
169, 310, 311, 314, 313, 277, 278, 281, 280
170, 311, 312, 315, 314, 278, 279, 282, 281
171, 313, 314, 317, 316, 280, 281, 284, 283
172, 314, 315, 318, 317, 281, 282, 285, 284
173, 316, 317, 320, 319, 283, 284, 287, 286
174, 317, 318, 321, 320, 284, 285, 288, 287
175, 319, 320, 323, 322, 286, 287, 290, 289
176, 320, 321, 324, 323, 287, 288, 291, 290
177, 322, 323, 326, 325, 289, 290, 293, 292
178, 323, 324, 327, 326, 290, 291, 294, 293
179, 325, 326, 329, 328, 292, 293, 296, 295
180, 326, 327, 330, 329, 293, 294, 297, 296
181, 331, 332, 335, 334, 298, 299, 302, 301
182, 332, 333, 336, 335, 299, 300, 303, 302
183, 334, 335, 338, 337, 301, 302, 305, 304
184, 335, 336, 339, 338, 302, 303, 306, 305
185, 337, 338, 341, 340, 304, 305, 308, 307
186, 338, 339, 342, 341, 305, 306, 309, 308
187, 340, 341, 344, 343, 307, 308, 311, 310
188, 341, 342, 345, 344, 308, 309, 312, 311
189, 343, 344, 347, 346, 310, 311, 314, 313
190, 344, 345, 348, 347, 311, 312, 315, 314
191, 346, 347, 350, 349, 313, 314, 317, 316
192, 347, 348, 351, 350, 314, 315, 318, 317
193, 349, 350, 353, 352, 316, 317, 320, 319
194, 350, 351, 354, 353, 317, 318, 321, 320
195, 352, 353, 356, 355, 319, 320, 323, 322
196, 353, 354, 357, 356, 320, 321, 324, 323
197, 355, 356, 359, 358, 322, 323, 326, 325
198, 356, 357, 360, 359, 323, 324, 327, 326
199, 358, 359, 362, 361, 325, 326, 329, 328
200, 359, 360, 363, 362, 326, 327, 330, 329
*Nset, nset=AL_COLLECTOR_ALL, generate
   1,  363,    1
*Elset, elset=AL_COLLECTOR_ALL, generate
   1,  200,    1
*Nset, nset=AL_INTERFACE_NODES, generate
   1,  361,    3
*Nset, nset=AL_BOTTOM_NODES, generate
   3,  363,    3
*Nset, nset=DRIFT_CORNER_A
 363,
*Nset, nset=DRIFT_CORNER_B
 33,
*Elset, elset=_AL_INTERFACE_S6, internal, generate
   1,  199,    2
*Surface, type=ELEMENT, name=AL_INTERFACE
_AL_INTERFACE_S6, S6
*Elset, elset=_AL_BOTTOM_S4, internal, generate
   2,  200,    2
*Surface, type=ELEMENT, name=AL_BOTTOM
_AL_BOTTOM_S4, S4
** Section: AlCollectorSection
*Solid Section, elset=AL_COLLECTOR_ALL, material=Al_Current_Collector
,
*End Part
**  
*Part, name=BottomRigidPlate
*End Part
**  
*Part, name=TopRigidPlate
*End Part
**  
**
** ASSEMBLY
**
*Assembly, name=Assembly
**  
*Instance, name=ACTIVE_LAYER-1, part=ActiveLayer
          0.,           0.,         -0.5
*End Instance
**  
*Instance, name=AL_COLLECTOR-1, part=AlCollector
          0.,           0.,         -0.5
*End Instance
**  
*Instance, name=BOTTOM_PLATE-1, part=BottomRigidPlate
          0.,       -0.075,         -0.6
*Node
      1,           0.,           0.,  0.600000024
*Nset, nset=BOTTOM_PLATE-1-RefPt_, internal
1, 
*Surface, type=CYLINDER, name=PLATE_SURFACE
START,         -0.6,           0.
 LINE,          0.6,           0.
*End Instance
**  
*Instance, name=TOP_PLATE-1, part=TopRigidPlate
          0.,        0.075,         -0.6
*Node
      1,           0.,           0.,  0.600000024
*Nset, nset=TOP_PLATE-1-RefPt_, internal
1, 
*Surface, type=CYLINDER, name=PLATE_SURFACE
START,          0.6,           0.
 LINE,         -0.6,           0.
*End Instance
**  
*Nset, nset=BOTTOM_RP, instance=BOTTOM_PLATE-1
 1,
*Nset, nset=TOP_RP, instance=TOP_PLATE-1
 1,
*Nset, nset=_PickedSet12, internal, instance=BOTTOM_PLATE-1
 1,
*Nset, nset=_PickedSet13, internal, instance=TOP_PLATE-1
 1,
** Constraint: RigidBody-Bottom
*Rigid Body, ref node=_PickedSet12, analytical surface=BOTTOM_PLATE-1.PLATE_SURFACE
** Constraint: RigidBody-Top
*Rigid Body, ref node=_PickedSet13, analytical surface=TOP_PLATE-1.PLATE_SURFACE
** Constraint: Tie-Active-Al
*Tie, name=Tie-Active-Al, adjust=no
ACTIVE_LAYER-1.ACTIVE_INTERFACE, AL_COLLECTOR-1.AL_INTERFACE
*End Assembly
** 
** MATERIALS
** 
*Material, name=Active_Layer
*Elastic
609., 0.1
*Plastic
 10.,   0.
 20.,  0.1
 35.,  0.2
 62.,  0.3
 92.,  0.4
145.,  0.5
230., 0.63
*Material, name=Al_Current_Collector
*Elastic
72000., 0.33
** 
** INTERACTION PROPERTIES
** 
*Surface Interaction, name=PlateElectrodeContact
1.,
*Friction
0.,
*Surface Behavior, pressure-overclosure=HARD
** 
** BOUNDARY CONDITIONS
** 
** Name: BC-BottomPlate-Fixed Type: 对称/反对称/完全固定
*Boundary
BOTTOM_RP, ENCASTRE
** Name: BC-Drift-A Type: 位移/转角
*Boundary
AL_COLLECTOR-1.DRIFT_CORNER_A, 1, 1
AL_COLLECTOR-1.DRIFT_CORNER_A, 3, 3
** Name: BC-Drift-B Type: 位移/转角
*Boundary
AL_COLLECTOR-1.DRIFT_CORNER_B, 3, 3
** Name: BC-TopPlate Type: 位移/转角
*Boundary
TOP_RP, 1, 1
TOP_RP, 2, 2
TOP_RP, 3, 3
TOP_RP, 4, 4
TOP_RP, 5, 5
TOP_RP, 6, 6
** 
** INTERACTIONS
** 
** Interaction: Contact-Bottom-Al
*Contact Pair, interaction=PlateElectrodeContact, type=SURFACE TO SURFACE
AL_COLLECTOR-1.AL_BOTTOM, BOTTOM_PLATE-1.PLATE_SURFACE
** Interaction: Contact-Top-Active
*Contact Pair, interaction=PlateElectrodeContact, type=SURFACE TO SURFACE
ACTIVE_LAYER-1.ACTIVE_TOP, TOP_PLATE-1.PLATE_SURFACE
** ----------------------------------------------------------------
** 
** STEP: Step-1 Compression
** 
*Step, name="Step-1 Compression", nlgeom=YES, inc=1000
*Static, stabilize=0.0002, allsdtol=0, continue=NO
0.02, 1., 1e-08, 0.05
** 
** BOUNDARY CONDITIONS
** 
** Name: BC-TopPlate Type: 位移/转角
*Boundary
TOP_RP, 2, 2, -0.015
** 
** OUTPUT REQUESTS
** 
*Restart, write, frequency=0
** 
** FIELD OUTPUT: F-TwoLayerElectrode
** 
*Output, field
*Node Output
U, 
*Element Output, directions=YES
EVOL, LE, PE, PEEQ, S
** 
** HISTORY OUTPUT: H-Energy
** 
*Output, history
*Energy Output
ALLIE, ALLPD, ALLSD
** 
** HISTORY OUTPUT: H-TopRP
** 
*Node Output, nset=TOP_RP
RF2, U2
*End Step
** ----------------------------------------------------------------
** 
** STEP: Step-2 Unload
** 
*Step, name="Step-2 Unload", nlgeom=YES, inc=1000
*Static, stabilize=0.0002, allsdtol=0, continue=NO
0.02, 1., 1e-08, 0.05
** 
** BOUNDARY CONDITIONS
** 
** Name: BC-TopPlate Type: 位移/转角
*Boundary
TOP_RP, 2, 2
** 
** OUTPUT REQUESTS
** 
*Restart, write, frequency=0
** 
** FIELD OUTPUT: F-TwoLayerElectrode
** 
*Output, field
*Node Output
U, 
*Element Output, directions=YES
EVOL, LE, PE, PEEQ, S
** 
** HISTORY OUTPUT: H-Energy
** 
*Output, history
*Energy Output
ALLIE, ALLPD, ALLSD
** 
** HISTORY OUTPUT: H-TopRP
** 
*Node Output, nset=TOP_RP
RF2, U2
*End Step
