*Heading
 Three-layer electrode compression and unloading validation
** Job name: Yang_Macro_LayeredElectrode_Compression Model name: Yang_Macro_LayeredElectrode_Compression
** Generated by: Abaqus/CAE 2025
*Preprint, echo=NO, model=NO, history=NO, contact=NO
**
** PARTS
**
*Part, name=BottomRigidPlate
*End Part
**  
*Part, name=LayeredElectrode
*Node
      1,          0.5, 0.00749999983,           1.
      2,          0.5, 0.00749999983,           0.
      3,          0.5, 0.0825000033,           0.
      4,          0.5, 0.0825000033,           1.
      5,         -0.5, 0.00749999983,           0.
      6,         -0.5, 0.0825000033,           0.
      7,         -0.5, 0.0825000033,           1.
      8,         -0.5, 0.00749999983,           1.
      9,          0.5, -0.00749999983,           0.
     10,          0.5, -0.00749999983,           1.
     11,          0.5, -0.0825000033,           1.
     12,          0.5, -0.0825000033,           0.
     13,         -0.5, -0.00749999983,           1.
     14,         -0.5, -0.0825000033,           1.
     15,         -0.5, -0.0825000033,           0.
     16,         -0.5, -0.00749999983,           0.
     17,          0.5, 0.00749999983,  0.899999976
     18,          0.5, 0.00749999983,  0.800000012
     19,          0.5, 0.00749999983,  0.699999988
     20,          0.5, 0.00749999983,  0.600000024
     21,          0.5, 0.00749999983,          0.5
     22,          0.5, 0.00749999983,  0.400000006
     23,          0.5, 0.00749999983,  0.300000012
     24,          0.5, 0.00749999983,  0.200000003
     25,          0.5, 0.00749999983,  0.100000001
     26,          0.5, 0.0324999988,           0.
     27,          0.5,  0.057500001,           0.
     28,          0.5, 0.0825000033,  0.100000001
     29,          0.5, 0.0825000033,  0.200000003
     30,          0.5, 0.0825000033,  0.300000012
     31,          0.5, 0.0825000033,  0.400000006
     32,          0.5, 0.0825000033,          0.5
     33,          0.5, 0.0825000033,  0.600000024
     34,          0.5, 0.0825000033,  0.699999988
     35,          0.5, 0.0825000033,  0.800000012
     36,          0.5, 0.0825000033,  0.899999976
     37,          0.5,  0.057500001,           1.
     38,          0.5, 0.0324999988,           1.
     39,         -0.5, 0.00749999983,  0.100000001
     40,         -0.5, 0.00749999983,  0.200000003
     41,         -0.5, 0.00749999983,  0.300000012
     42,         -0.5, 0.00749999983,  0.400000006
     43,         -0.5, 0.00749999983,          0.5
     44,         -0.5, 0.00749999983,  0.600000024
     45,         -0.5, 0.00749999983,  0.699999988
     46,         -0.5, 0.00749999983,  0.800000012
     47,         -0.5, 0.00749999983,  0.899999976
     48,         -0.5,  0.057500001,           0.
     49,         -0.5, 0.0324999988,           0.
     50,         -0.5, 0.0825000033,  0.899999976
     51,         -0.5, 0.0825000033,  0.800000012
     52,         -0.5, 0.0825000033,  0.699999988
     53,         -0.5, 0.0825000033,  0.600000024
     54,         -0.5, 0.0825000033,          0.5
     55,         -0.5, 0.0825000033,  0.400000006
     56,         -0.5, 0.0825000033,  0.300000012
     57,         -0.5, 0.0825000033,  0.200000003
     58,         -0.5, 0.0825000033,  0.100000001
     59,         -0.5, 0.0324999988,           1.
     60,         -0.5,  0.057500001,           1.
     61,  0.400000006, 0.0825000033,           1.
     62,  0.300000012, 0.0825000033,           1.
     63,  0.200000003, 0.0825000033,           1.
     64,  0.100000001, 0.0825000033,           1.
     65,           0., 0.0825000033,           1.
     66, -0.100000001, 0.0825000033,           1.
     67, -0.200000003, 0.0825000033,           1.
     68, -0.300000012, 0.0825000033,           1.
     69, -0.400000006, 0.0825000033,           1.
     70, -0.400000006, 0.00749999983,           1.
     71, -0.300000012, 0.00749999983,           1.
     72, -0.200000003, 0.00749999983,           1.
     73, -0.100000001, 0.00749999983,           1.
     74,           0., 0.00749999983,           1.
     75,  0.100000001, 0.00749999983,           1.
     76,  0.200000003, 0.00749999983,           1.
     77,  0.300000012, 0.00749999983,           1.
     78,  0.400000006, 0.00749999983,           1.
     79, -0.400000006, 0.0825000033,           0.
     80, -0.300000012, 0.0825000033,           0.
     81, -0.200000003, 0.0825000033,           0.
     82, -0.100000001, 0.0825000033,           0.
     83,           0., 0.0825000033,           0.
     84,  0.100000001, 0.0825000033,           0.
     85,  0.200000003, 0.0825000033,           0.
     86,  0.300000012, 0.0825000033,           0.
     87,  0.400000006, 0.0825000033,           0.
     88,  0.400000006, 0.00749999983,           0.
     89,  0.300000012, 0.00749999983,           0.
     90,  0.200000003, 0.00749999983,           0.
     91,  0.100000001, 0.00749999983,           0.
     92,           0., 0.00749999983,           0.
     93, -0.100000001, 0.00749999983,           0.
     94, -0.200000003, 0.00749999983,           0.
     95, -0.300000012, 0.00749999983,           0.
     96, -0.400000006, 0.00749999983,           0.
     97,          0.5, -0.00749999983,  0.100000001
     98,          0.5, -0.00749999983,  0.200000003
     99,          0.5, -0.00749999983,  0.300000012
    100,          0.5, -0.00749999983,  0.400000006
    101,          0.5, -0.00749999983,          0.5
    102,          0.5, -0.00749999983,  0.600000024
    103,          0.5, -0.00749999983,  0.699999988
    104,          0.5, -0.00749999983,  0.800000012
    105,          0.5, -0.00749999983,  0.899999976
    106,          0.5, -0.0324999988,           1.
    107,          0.5, -0.057500001,           1.
    108,          0.5, -0.0825000033,  0.899999976
    109,          0.5, -0.0825000033,  0.800000012
    110,          0.5, -0.0825000033,  0.699999988
    111,          0.5, -0.0825000033,  0.600000024
    112,          0.5, -0.0825000033,          0.5
    113,          0.5, -0.0825000033,  0.400000006
    114,          0.5, -0.0825000033,  0.300000012
    115,          0.5, -0.0825000033,  0.200000003
    116,          0.5, -0.0825000033,  0.100000001
    117,          0.5, -0.057500001,           0.
    118,          0.5, -0.0324999988,           0.
    119,         -0.5, -0.00749999983,  0.899999976
    120,         -0.5, -0.00749999983,  0.800000012
    121,         -0.5, -0.00749999983,  0.699999988
    122,         -0.5, -0.00749999983,  0.600000024
    123,         -0.5, -0.00749999983,          0.5
    124,         -0.5, -0.00749999983,  0.400000006
    125,         -0.5, -0.00749999983,  0.300000012
    126,         -0.5, -0.00749999983,  0.200000003
    127,         -0.5, -0.00749999983,  0.100000001
    128,         -0.5, -0.057500001,           1.
    129,         -0.5, -0.0324999988,           1.
    130,         -0.5, -0.0825000033,  0.100000001
    131,         -0.5, -0.0825000033,  0.200000003
    132,         -0.5, -0.0825000033,  0.300000012
    133,         -0.5, -0.0825000033,  0.400000006
    134,         -0.5, -0.0825000033,          0.5
    135,         -0.5, -0.0825000033,  0.600000024
    136,         -0.5, -0.0825000033,  0.699999988
    137,         -0.5, -0.0825000033,  0.800000012
    138,         -0.5, -0.0825000033,  0.899999976
    139,         -0.5, -0.0324999988,           0.
    140,         -0.5, -0.057500001,           0.
    141,  0.400000006, -0.0825000033,           0.
    142,  0.300000012, -0.0825000033,           0.
    143,  0.200000003, -0.0825000033,           0.
    144,  0.100000001, -0.0825000033,           0.
    145,           0., -0.0825000033,           0.
    146, -0.100000001, -0.0825000033,           0.
    147, -0.200000003, -0.0825000033,           0.
    148, -0.300000012, -0.0825000033,           0.
    149, -0.400000006, -0.0825000033,           0.
    150, -0.400000006, -0.00749999983,           0.
    151, -0.300000012, -0.00749999983,           0.
    152, -0.200000003, -0.00749999983,           0.
    153, -0.100000001, -0.00749999983,           0.
    154,           0., -0.00749999983,           0.
    155,  0.100000001, -0.00749999983,           0.
    156,  0.200000003, -0.00749999983,           0.
    157,  0.300000012, -0.00749999983,           0.
    158,  0.400000006, -0.00749999983,           0.
    159, -0.400000006, -0.0825000033,           1.
    160, -0.300000012, -0.0825000033,           1.
    161, -0.200000003, -0.0825000033,           1.
    162, -0.100000001, -0.0825000033,           1.
    163,           0., -0.0825000033,           1.
    164,  0.100000001, -0.0825000033,           1.
    165,  0.200000003, -0.0825000033,           1.
    166,  0.300000012, -0.0825000033,           1.
    167,  0.400000006, -0.0825000033,           1.
    168,  0.400000006, -0.00749999983,           1.
    169,  0.300000012, -0.00749999983,           1.
    170,  0.200000003, -0.00749999983,           1.
    171,  0.100000001, -0.00749999983,           1.
    172,           0., -0.00749999983,           1.
    173, -0.100000001, -0.00749999983,           1.
    174, -0.200000003, -0.00749999983,           1.
    175, -0.300000012, -0.00749999983,           1.
    176, -0.400000006, -0.00749999983,           1.
    177,          0.5,           0.,           1.
    178,          0.5,           0.,           0.
    179,         -0.5,           0.,           1.
    180,         -0.5,           0.,           0.
    181,          0.5, 0.0324999988,  0.899999976
    182,          0.5, 0.0324999988,  0.800000012
    183,          0.5, 0.0324999988,  0.699999988
    184,          0.5, 0.0324999988,  0.600000024
    185,          0.5, 0.0324999988,          0.5
    186,          0.5, 0.0324999988,  0.400000006
    187,          0.5, 0.0324999988,  0.300000012
    188,          0.5, 0.0324999988,  0.200000003
    189,          0.5, 0.0324999988,  0.100000001
    190,          0.5,  0.057500001,  0.899999976
    191,          0.5,  0.057500001,  0.800000012
    192,          0.5,  0.057500001,  0.699999988
    193,          0.5,  0.057500001,  0.600000024
    194,          0.5,  0.057500001,          0.5
    195,          0.5,  0.057500001,  0.400000006
    196,          0.5,  0.057500001,  0.300000012
    197,          0.5,  0.057500001,  0.200000003
    198,          0.5,  0.057500001,  0.100000001
    199,         -0.5, 0.0324999988,  0.899999976
    200,         -0.5, 0.0324999988,  0.800000012
    201,         -0.5, 0.0324999988,  0.699999988
    202,         -0.5, 0.0324999988,  0.600000024
    203,         -0.5, 0.0324999988,          0.5
    204,         -0.5, 0.0324999988,  0.400000006
    205,         -0.5, 0.0324999988,  0.300000012
    206,         -0.5, 0.0324999988,  0.200000003
    207,         -0.5, 0.0324999988,  0.100000001
    208,         -0.5,  0.057500001,  0.899999976
    209,         -0.5,  0.057500001,  0.800000012
    210,         -0.5,  0.057500001,  0.699999988
    211,         -0.5,  0.057500001,  0.600000024
    212,         -0.5,  0.057500001,          0.5
    213,         -0.5,  0.057500001,  0.400000006
    214,         -0.5,  0.057500001,  0.300000012
    215,         -0.5,  0.057500001,  0.200000003
    216,         -0.5,  0.057500001,  0.100000001
    217,  0.400000006, 0.0324999988,           1.
    218,  0.400000006,  0.057500001,           1.
    219,  0.300000012, 0.0324999988,           1.
    220,  0.300000012,  0.057500001,           1.
    221,  0.200000003, 0.0324999988,           1.
    222,  0.200000003,  0.057500001,           1.
    223,  0.100000001, 0.0324999988,           1.
    224,  0.100000001,  0.057500001,           1.
    225,           0., 0.0324999988,           1.
    226,           0.,  0.057500001,           1.
    227, -0.100000001, 0.0324999988,           1.
    228, -0.100000001,  0.057500001,           1.
    229, -0.200000003, 0.0324999988,           1.
    230, -0.200000003,  0.057500001,           1.
    231, -0.300000012, 0.0324999988,           1.
    232, -0.300000012,  0.057500001,           1.
    233, -0.400000006, 0.0324999988,           1.
    234, -0.400000006,  0.057500001,           1.
    235,  0.400000006, 0.0324999988,           0.
    236,  0.400000006,  0.057500001,           0.
    237,  0.300000012, 0.0324999988,           0.
    238,  0.300000012,  0.057500001,           0.
    239,  0.200000003, 0.0324999988,           0.
    240,  0.200000003,  0.057500001,           0.
    241,  0.100000001, 0.0324999988,           0.
    242,  0.100000001,  0.057500001,           0.
    243,           0., 0.0324999988,           0.
    244,           0.,  0.057500001,           0.
    245, -0.100000001, 0.0324999988,           0.
    246, -0.100000001,  0.057500001,           0.
    247, -0.200000003, 0.0324999988,           0.
    248, -0.200000003,  0.057500001,           0.
    249, -0.300000012, 0.0324999988,           0.
    250, -0.300000012,  0.057500001,           0.
    251, -0.400000006, 0.0324999988,           0.
    252, -0.400000006,  0.057500001,           0.
    253,  0.400000006, 0.00749999983,  0.899999976
    254,  0.400000006, 0.00749999983,  0.800000012
    255,  0.400000006, 0.00749999983,  0.699999988
    256,  0.400000006, 0.00749999983,  0.600000024
    257,  0.400000006, 0.00749999983,          0.5
    258,  0.400000006, 0.00749999983,  0.400000006
    259,  0.400000006, 0.00749999983,  0.300000012
    260,  0.400000006, 0.00749999983,  0.200000003
    261,  0.400000006, 0.00749999983,  0.100000001
    262,  0.300000012, 0.00749999983,  0.899999976
    263,  0.300000012, 0.00749999983,  0.800000012
    264,  0.300000012, 0.00749999983,  0.699999988
    265,  0.300000012, 0.00749999983,  0.600000024
    266,  0.300000012, 0.00749999983,          0.5
    267,  0.300000012, 0.00749999983,  0.400000006
    268,  0.300000012, 0.00749999983,  0.300000012
    269,  0.300000012, 0.00749999983,  0.200000003
    270,  0.300000012, 0.00749999983,  0.100000001
    271,  0.200000003, 0.00749999983,  0.899999976
    272,  0.200000003, 0.00749999983,  0.800000012
    273,  0.200000003, 0.00749999983,  0.699999988
    274,  0.200000003, 0.00749999983,  0.600000024
    275,  0.200000003, 0.00749999983,          0.5
    276,  0.200000003, 0.00749999983,  0.400000006
    277,  0.200000003, 0.00749999983,  0.300000012
    278,  0.200000003, 0.00749999983,  0.200000003
    279,  0.200000003, 0.00749999983,  0.100000001
    280,  0.100000001, 0.00749999983,  0.899999976
    281,  0.100000001, 0.00749999983,  0.800000012
    282,  0.100000001, 0.00749999983,  0.699999988
    283,  0.100000001, 0.00749999983,  0.600000024
    284,  0.100000001, 0.00749999983,          0.5
    285,  0.100000001, 0.00749999983,  0.400000006
    286,  0.100000001, 0.00749999983,  0.300000012
    287,  0.100000001, 0.00749999983,  0.200000003
    288,  0.100000001, 0.00749999983,  0.100000001
    289,           0., 0.00749999983,  0.899999976
    290,           0., 0.00749999983,  0.800000012
    291,           0., 0.00749999983,  0.699999988
    292,           0., 0.00749999983,  0.600000024
    293,           0., 0.00749999983,          0.5
    294,           0., 0.00749999983,  0.400000006
    295,           0., 0.00749999983,  0.300000012
    296,           0., 0.00749999983,  0.200000003
    297,           0., 0.00749999983,  0.100000001
    298, -0.100000001, 0.00749999983,  0.899999976
    299, -0.100000001, 0.00749999983,  0.800000012
    300, -0.100000001, 0.00749999983,  0.699999988
    301, -0.100000001, 0.00749999983,  0.600000024
    302, -0.100000001, 0.00749999983,          0.5
    303, -0.100000001, 0.00749999983,  0.400000006
    304, -0.100000001, 0.00749999983,  0.300000012
    305, -0.100000001, 0.00749999983,  0.200000003
    306, -0.100000001, 0.00749999983,  0.100000001
    307, -0.200000003, 0.00749999983,  0.899999976
    308, -0.200000003, 0.00749999983,  0.800000012
    309, -0.200000003, 0.00749999983,  0.699999988
    310, -0.200000003, 0.00749999983,  0.600000024
    311, -0.200000003, 0.00749999983,          0.5
    312, -0.200000003, 0.00749999983,  0.400000006
    313, -0.200000003, 0.00749999983,  0.300000012
    314, -0.200000003, 0.00749999983,  0.200000003
    315, -0.200000003, 0.00749999983,  0.100000001
    316, -0.300000012, 0.00749999983,  0.899999976
    317, -0.300000012, 0.00749999983,  0.800000012
    318, -0.300000012, 0.00749999983,  0.699999988
    319, -0.300000012, 0.00749999983,  0.600000024
    320, -0.300000012, 0.00749999983,          0.5
    321, -0.300000012, 0.00749999983,  0.400000006
    322, -0.300000012, 0.00749999983,  0.300000012
    323, -0.300000012, 0.00749999983,  0.200000003
    324, -0.300000012, 0.00749999983,  0.100000001
    325, -0.400000006, 0.00749999983,  0.899999976
    326, -0.400000006, 0.00749999983,  0.800000012
    327, -0.400000006, 0.00749999983,  0.699999988
    328, -0.400000006, 0.00749999983,  0.600000024
    329, -0.400000006, 0.00749999983,          0.5
    330, -0.400000006, 0.00749999983,  0.400000006
    331, -0.400000006, 0.00749999983,  0.300000012
    332, -0.400000006, 0.00749999983,  0.200000003
    333, -0.400000006, 0.00749999983,  0.100000001
    334,  0.400000006, 0.0825000033,  0.899999976
    335,  0.400000006, 0.0825000033,  0.800000012
    336,  0.400000006, 0.0825000033,  0.699999988
    337,  0.400000006, 0.0825000033,  0.600000024
    338,  0.400000006, 0.0825000033,          0.5
    339,  0.400000006, 0.0825000033,  0.400000006
    340,  0.400000006, 0.0825000033,  0.300000012
    341,  0.400000006, 0.0825000033,  0.200000003
    342,  0.400000006, 0.0825000033,  0.100000001
    343,  0.300000012, 0.0825000033,  0.899999976
    344,  0.300000012, 0.0825000033,  0.800000012
    345,  0.300000012, 0.0825000033,  0.699999988
    346,  0.300000012, 0.0825000033,  0.600000024
    347,  0.300000012, 0.0825000033,          0.5
    348,  0.300000012, 0.0825000033,  0.400000006
    349,  0.300000012, 0.0825000033,  0.300000012
    350,  0.300000012, 0.0825000033,  0.200000003
    351,  0.300000012, 0.0825000033,  0.100000001
    352,  0.200000003, 0.0825000033,  0.899999976
    353,  0.200000003, 0.0825000033,  0.800000012
    354,  0.200000003, 0.0825000033,  0.699999988
    355,  0.200000003, 0.0825000033,  0.600000024
    356,  0.200000003, 0.0825000033,          0.5
    357,  0.200000003, 0.0825000033,  0.400000006
    358,  0.200000003, 0.0825000033,  0.300000012
    359,  0.200000003, 0.0825000033,  0.200000003
    360,  0.200000003, 0.0825000033,  0.100000001
    361,  0.100000001, 0.0825000033,  0.899999976
    362,  0.100000001, 0.0825000033,  0.800000012
    363,  0.100000001, 0.0825000033,  0.699999988
    364,  0.100000001, 0.0825000033,  0.600000024
    365,  0.100000001, 0.0825000033,          0.5
    366,  0.100000001, 0.0825000033,  0.400000006
    367,  0.100000001, 0.0825000033,  0.300000012
    368,  0.100000001, 0.0825000033,  0.200000003
    369,  0.100000001, 0.0825000033,  0.100000001
    370,           0., 0.0825000033,  0.899999976
    371,           0., 0.0825000033,  0.800000012
    372,           0., 0.0825000033,  0.699999988
    373,           0., 0.0825000033,  0.600000024
    374,           0., 0.0825000033,          0.5
    375,           0., 0.0825000033,  0.400000006
    376,           0., 0.0825000033,  0.300000012
    377,           0., 0.0825000033,  0.200000003
    378,           0., 0.0825000033,  0.100000001
    379, -0.100000001, 0.0825000033,  0.899999976
    380, -0.100000001, 0.0825000033,  0.800000012
    381, -0.100000001, 0.0825000033,  0.699999988
    382, -0.100000001, 0.0825000033,  0.600000024
    383, -0.100000001, 0.0825000033,          0.5
    384, -0.100000001, 0.0825000033,  0.400000006
    385, -0.100000001, 0.0825000033,  0.300000012
    386, -0.100000001, 0.0825000033,  0.200000003
    387, -0.100000001, 0.0825000033,  0.100000001
    388, -0.200000003, 0.0825000033,  0.899999976
    389, -0.200000003, 0.0825000033,  0.800000012
    390, -0.200000003, 0.0825000033,  0.699999988
    391, -0.200000003, 0.0825000033,  0.600000024
    392, -0.200000003, 0.0825000033,          0.5
    393, -0.200000003, 0.0825000033,  0.400000006
    394, -0.200000003, 0.0825000033,  0.300000012
    395, -0.200000003, 0.0825000033,  0.200000003
    396, -0.200000003, 0.0825000033,  0.100000001
    397, -0.300000012, 0.0825000033,  0.899999976
    398, -0.300000012, 0.0825000033,  0.800000012
    399, -0.300000012, 0.0825000033,  0.699999988
    400, -0.300000012, 0.0825000033,  0.600000024
    401, -0.300000012, 0.0825000033,          0.5
    402, -0.300000012, 0.0825000033,  0.400000006
    403, -0.300000012, 0.0825000033,  0.300000012
    404, -0.300000012, 0.0825000033,  0.200000003
    405, -0.300000012, 0.0825000033,  0.100000001
    406, -0.400000006, 0.0825000033,  0.899999976
    407, -0.400000006, 0.0825000033,  0.800000012
    408, -0.400000006, 0.0825000033,  0.699999988
    409, -0.400000006, 0.0825000033,  0.600000024
    410, -0.400000006, 0.0825000033,          0.5
    411, -0.400000006, 0.0825000033,  0.400000006
    412, -0.400000006, 0.0825000033,  0.300000012
    413, -0.400000006, 0.0825000033,  0.200000003
    414, -0.400000006, 0.0825000033,  0.100000001
    415,          0.5, -0.0324999988,  0.100000001
    416,          0.5, -0.0324999988,  0.200000003
    417,          0.5, -0.0324999988,  0.300000012
    418,          0.5, -0.0324999988,  0.400000006
    419,          0.5, -0.0324999988,          0.5
    420,          0.5, -0.0324999988,  0.600000024
    421,          0.5, -0.0324999988,  0.699999988
    422,          0.5, -0.0324999988,  0.800000012
    423,          0.5, -0.0324999988,  0.899999976
    424,          0.5, -0.057500001,  0.100000001
    425,          0.5, -0.057500001,  0.200000003
    426,          0.5, -0.057500001,  0.300000012
    427,          0.5, -0.057500001,  0.400000006
    428,          0.5, -0.057500001,          0.5
    429,          0.5, -0.057500001,  0.600000024
    430,          0.5, -0.057500001,  0.699999988
    431,          0.5, -0.057500001,  0.800000012
    432,          0.5, -0.057500001,  0.899999976
    433,         -0.5, -0.0324999988,  0.100000001
    434,         -0.5, -0.0324999988,  0.200000003
    435,         -0.5, -0.0324999988,  0.300000012
    436,         -0.5, -0.0324999988,  0.400000006
    437,         -0.5, -0.0324999988,          0.5
    438,         -0.5, -0.0324999988,  0.600000024
    439,         -0.5, -0.0324999988,  0.699999988
    440,         -0.5, -0.0324999988,  0.800000012
    441,         -0.5, -0.0324999988,  0.899999976
    442,         -0.5, -0.057500001,  0.100000001
    443,         -0.5, -0.057500001,  0.200000003
    444,         -0.5, -0.057500001,  0.300000012
    445,         -0.5, -0.057500001,  0.400000006
    446,         -0.5, -0.057500001,          0.5
    447,         -0.5, -0.057500001,  0.600000024
    448,         -0.5, -0.057500001,  0.699999988
    449,         -0.5, -0.057500001,  0.800000012
    450,         -0.5, -0.057500001,  0.899999976
    451,  0.400000006, -0.0324999988,           0.
    452,  0.400000006, -0.057500001,           0.
    453,  0.300000012, -0.0324999988,           0.
    454,  0.300000012, -0.057500001,           0.
    455,  0.200000003, -0.0324999988,           0.
    456,  0.200000003, -0.057500001,           0.
    457,  0.100000001, -0.0324999988,           0.
    458,  0.100000001, -0.057500001,           0.
    459,           0., -0.0324999988,           0.
    460,           0., -0.057500001,           0.
    461, -0.100000001, -0.0324999988,           0.
    462, -0.100000001, -0.057500001,           0.
    463, -0.200000003, -0.0324999988,           0.
    464, -0.200000003, -0.057500001,           0.
    465, -0.300000012, -0.0324999988,           0.
    466, -0.300000012, -0.057500001,           0.
    467, -0.400000006, -0.0324999988,           0.
    468, -0.400000006, -0.057500001,           0.
    469,  0.400000006, -0.0324999988,           1.
    470,  0.400000006, -0.057500001,           1.
    471,  0.300000012, -0.0324999988,           1.
    472,  0.300000012, -0.057500001,           1.
    473,  0.200000003, -0.0324999988,           1.
    474,  0.200000003, -0.057500001,           1.
    475,  0.100000001, -0.0324999988,           1.
    476,  0.100000001, -0.057500001,           1.
    477,           0., -0.0324999988,           1.
    478,           0., -0.057500001,           1.
    479, -0.100000001, -0.0324999988,           1.
    480, -0.100000001, -0.057500001,           1.
    481, -0.200000003, -0.0324999988,           1.
    482, -0.200000003, -0.057500001,           1.
    483, -0.300000012, -0.0324999988,           1.
    484, -0.300000012, -0.057500001,           1.
    485, -0.400000006, -0.0324999988,           1.
    486, -0.400000006, -0.057500001,           1.
    487,  0.400000006, -0.00749999983,  0.100000001
    488,  0.400000006, -0.00749999983,  0.200000003
    489,  0.400000006, -0.00749999983,  0.300000012
    490,  0.400000006, -0.00749999983,  0.400000006
    491,  0.400000006, -0.00749999983,          0.5
    492,  0.400000006, -0.00749999983,  0.600000024
    493,  0.400000006, -0.00749999983,  0.699999988
    494,  0.400000006, -0.00749999983,  0.800000012
    495,  0.400000006, -0.00749999983,  0.899999976
    496,  0.300000012, -0.00749999983,  0.100000001
    497,  0.300000012, -0.00749999983,  0.200000003
    498,  0.300000012, -0.00749999983,  0.300000012
    499,  0.300000012, -0.00749999983,  0.400000006
    500,  0.300000012, -0.00749999983,          0.5
    501,  0.300000012, -0.00749999983,  0.600000024
    502,  0.300000012, -0.00749999983,  0.699999988
    503,  0.300000012, -0.00749999983,  0.800000012
    504,  0.300000012, -0.00749999983,  0.899999976
    505,  0.200000003, -0.00749999983,  0.100000001
    506,  0.200000003, -0.00749999983,  0.200000003
    507,  0.200000003, -0.00749999983,  0.300000012
    508,  0.200000003, -0.00749999983,  0.400000006
    509,  0.200000003, -0.00749999983,          0.5
    510,  0.200000003, -0.00749999983,  0.600000024
    511,  0.200000003, -0.00749999983,  0.699999988
    512,  0.200000003, -0.00749999983,  0.800000012
    513,  0.200000003, -0.00749999983,  0.899999976
    514,  0.100000001, -0.00749999983,  0.100000001
    515,  0.100000001, -0.00749999983,  0.200000003
    516,  0.100000001, -0.00749999983,  0.300000012
    517,  0.100000001, -0.00749999983,  0.400000006
    518,  0.100000001, -0.00749999983,          0.5
    519,  0.100000001, -0.00749999983,  0.600000024
    520,  0.100000001, -0.00749999983,  0.699999988
    521,  0.100000001, -0.00749999983,  0.800000012
    522,  0.100000001, -0.00749999983,  0.899999976
    523,           0., -0.00749999983,  0.100000001
    524,           0., -0.00749999983,  0.200000003
    525,           0., -0.00749999983,  0.300000012
    526,           0., -0.00749999983,  0.400000006
    527,           0., -0.00749999983,          0.5
    528,           0., -0.00749999983,  0.600000024
    529,           0., -0.00749999983,  0.699999988
    530,           0., -0.00749999983,  0.800000012
    531,           0., -0.00749999983,  0.899999976
    532, -0.100000001, -0.00749999983,  0.100000001
    533, -0.100000001, -0.00749999983,  0.200000003
    534, -0.100000001, -0.00749999983,  0.300000012
    535, -0.100000001, -0.00749999983,  0.400000006
    536, -0.100000001, -0.00749999983,          0.5
    537, -0.100000001, -0.00749999983,  0.600000024
    538, -0.100000001, -0.00749999983,  0.699999988
    539, -0.100000001, -0.00749999983,  0.800000012
    540, -0.100000001, -0.00749999983,  0.899999976
    541, -0.200000003, -0.00749999983,  0.100000001
    542, -0.200000003, -0.00749999983,  0.200000003
    543, -0.200000003, -0.00749999983,  0.300000012
    544, -0.200000003, -0.00749999983,  0.400000006
    545, -0.200000003, -0.00749999983,          0.5
    546, -0.200000003, -0.00749999983,  0.600000024
    547, -0.200000003, -0.00749999983,  0.699999988
    548, -0.200000003, -0.00749999983,  0.800000012
    549, -0.200000003, -0.00749999983,  0.899999976
    550, -0.300000012, -0.00749999983,  0.100000001
    551, -0.300000012, -0.00749999983,  0.200000003
    552, -0.300000012, -0.00749999983,  0.300000012
    553, -0.300000012, -0.00749999983,  0.400000006
    554, -0.300000012, -0.00749999983,          0.5
    555, -0.300000012, -0.00749999983,  0.600000024
    556, -0.300000012, -0.00749999983,  0.699999988
    557, -0.300000012, -0.00749999983,  0.800000012
    558, -0.300000012, -0.00749999983,  0.899999976
    559, -0.400000006, -0.00749999983,  0.100000001
    560, -0.400000006, -0.00749999983,  0.200000003
    561, -0.400000006, -0.00749999983,  0.300000012
    562, -0.400000006, -0.00749999983,  0.400000006
    563, -0.400000006, -0.00749999983,          0.5
    564, -0.400000006, -0.00749999983,  0.600000024
    565, -0.400000006, -0.00749999983,  0.699999988
    566, -0.400000006, -0.00749999983,  0.800000012
    567, -0.400000006, -0.00749999983,  0.899999976
    568,  0.400000006, -0.0825000033,  0.100000001
    569,  0.400000006, -0.0825000033,  0.200000003
    570,  0.400000006, -0.0825000033,  0.300000012
    571,  0.400000006, -0.0825000033,  0.400000006
    572,  0.400000006, -0.0825000033,          0.5
    573,  0.400000006, -0.0825000033,  0.600000024
    574,  0.400000006, -0.0825000033,  0.699999988
    575,  0.400000006, -0.0825000033,  0.800000012
    576,  0.400000006, -0.0825000033,  0.899999976
    577,  0.300000012, -0.0825000033,  0.100000001
    578,  0.300000012, -0.0825000033,  0.200000003
    579,  0.300000012, -0.0825000033,  0.300000012
    580,  0.300000012, -0.0825000033,  0.400000006
    581,  0.300000012, -0.0825000033,          0.5
    582,  0.300000012, -0.0825000033,  0.600000024
    583,  0.300000012, -0.0825000033,  0.699999988
    584,  0.300000012, -0.0825000033,  0.800000012
    585,  0.300000012, -0.0825000033,  0.899999976
    586,  0.200000003, -0.0825000033,  0.100000001
    587,  0.200000003, -0.0825000033,  0.200000003
    588,  0.200000003, -0.0825000033,  0.300000012
    589,  0.200000003, -0.0825000033,  0.400000006
    590,  0.200000003, -0.0825000033,          0.5
    591,  0.200000003, -0.0825000033,  0.600000024
    592,  0.200000003, -0.0825000033,  0.699999988
    593,  0.200000003, -0.0825000033,  0.800000012
    594,  0.200000003, -0.0825000033,  0.899999976
    595,  0.100000001, -0.0825000033,  0.100000001
    596,  0.100000001, -0.0825000033,  0.200000003
    597,  0.100000001, -0.0825000033,  0.300000012
    598,  0.100000001, -0.0825000033,  0.400000006
    599,  0.100000001, -0.0825000033,          0.5
    600,  0.100000001, -0.0825000033,  0.600000024
    601,  0.100000001, -0.0825000033,  0.699999988
    602,  0.100000001, -0.0825000033,  0.800000012
    603,  0.100000001, -0.0825000033,  0.899999976
    604,           0., -0.0825000033,  0.100000001
    605,           0., -0.0825000033,  0.200000003
    606,           0., -0.0825000033,  0.300000012
    607,           0., -0.0825000033,  0.400000006
    608,           0., -0.0825000033,          0.5
    609,           0., -0.0825000033,  0.600000024
    610,           0., -0.0825000033,  0.699999988
    611,           0., -0.0825000033,  0.800000012
    612,           0., -0.0825000033,  0.899999976
    613, -0.100000001, -0.0825000033,  0.100000001
    614, -0.100000001, -0.0825000033,  0.200000003
    615, -0.100000001, -0.0825000033,  0.300000012
    616, -0.100000001, -0.0825000033,  0.400000006
    617, -0.100000001, -0.0825000033,          0.5
    618, -0.100000001, -0.0825000033,  0.600000024
    619, -0.100000001, -0.0825000033,  0.699999988
    620, -0.100000001, -0.0825000033,  0.800000012
    621, -0.100000001, -0.0825000033,  0.899999976
    622, -0.200000003, -0.0825000033,  0.100000001
    623, -0.200000003, -0.0825000033,  0.200000003
    624, -0.200000003, -0.0825000033,  0.300000012
    625, -0.200000003, -0.0825000033,  0.400000006
    626, -0.200000003, -0.0825000033,          0.5
    627, -0.200000003, -0.0825000033,  0.600000024
    628, -0.200000003, -0.0825000033,  0.699999988
    629, -0.200000003, -0.0825000033,  0.800000012
    630, -0.200000003, -0.0825000033,  0.899999976
    631, -0.300000012, -0.0825000033,  0.100000001
    632, -0.300000012, -0.0825000033,  0.200000003
    633, -0.300000012, -0.0825000033,  0.300000012
    634, -0.300000012, -0.0825000033,  0.400000006
    635, -0.300000012, -0.0825000033,          0.5
    636, -0.300000012, -0.0825000033,  0.600000024
    637, -0.300000012, -0.0825000033,  0.699999988
    638, -0.300000012, -0.0825000033,  0.800000012
    639, -0.300000012, -0.0825000033,  0.899999976
    640, -0.400000006, -0.0825000033,  0.100000001
    641, -0.400000006, -0.0825000033,  0.200000003
    642, -0.400000006, -0.0825000033,  0.300000012
    643, -0.400000006, -0.0825000033,  0.400000006
    644, -0.400000006, -0.0825000033,          0.5
    645, -0.400000006, -0.0825000033,  0.600000024
    646, -0.400000006, -0.0825000033,  0.699999988
    647, -0.400000006, -0.0825000033,  0.800000012
    648, -0.400000006, -0.0825000033,  0.899999976
    649,          0.5,           0.,  0.100000001
    650,          0.5,           0.,  0.200000003
    651,          0.5,           0.,  0.300000012
    652,          0.5,           0.,  0.400000006
    653,          0.5,           0.,          0.5
    654,          0.5,           0.,  0.600000024
    655,          0.5,           0.,  0.699999988
    656,          0.5,           0.,  0.800000012
    657,          0.5,           0.,  0.899999976
    658,         -0.5,           0.,  0.100000001
    659,         -0.5,           0.,  0.200000003
    660,         -0.5,           0.,  0.300000012
    661,         -0.5,           0.,  0.400000006
    662,         -0.5,           0.,          0.5
    663,         -0.5,           0.,  0.600000024
    664,         -0.5,           0.,  0.699999988
    665,         -0.5,           0.,  0.800000012
    666,         -0.5,           0.,  0.899999976
    667,  0.400000006,           0.,           0.
    668,  0.300000012,           0.,           0.
    669,  0.200000003,           0.,           0.
    670,  0.100000001,           0.,           0.
    671,           0.,           0.,           0.
    672, -0.100000001,           0.,           0.
    673, -0.200000003,           0.,           0.
    674, -0.300000012,           0.,           0.
    675, -0.400000006,           0.,           0.
    676,  0.400000006,           0.,           1.
    677,  0.300000012,           0.,           1.
    678,  0.200000003,           0.,           1.
    679,  0.100000001,           0.,           1.
    680,           0.,           0.,           1.
    681, -0.100000001,           0.,           1.
    682, -0.200000003,           0.,           1.
    683, -0.300000012,           0.,           1.
    684, -0.400000006,           0.,           1.
    685,  0.400000006, 0.0324999988,  0.899999976
    686,  0.400000006, 0.0324999988,  0.800000012
    687,  0.400000006, 0.0324999988,  0.699999988
    688,  0.400000006, 0.0324999988,  0.600000024
    689,  0.400000006, 0.0324999988,          0.5
    690,  0.400000006, 0.0324999988,  0.400000006
    691,  0.400000006, 0.0324999988,  0.300000012
    692,  0.400000006, 0.0324999988,  0.200000003
    693,  0.400000006, 0.0324999988,  0.100000001
    694,  0.400000006,  0.057500001,  0.899999976
    695,  0.400000006,  0.057500001,  0.800000012
    696,  0.400000006,  0.057500001,  0.699999988
    697,  0.400000006,  0.057500001,  0.600000024
    698,  0.400000006,  0.057500001,          0.5
    699,  0.400000006,  0.057500001,  0.400000006
    700,  0.400000006,  0.057500001,  0.300000012
    701,  0.400000006,  0.057500001,  0.200000003
    702,  0.400000006,  0.057500001,  0.100000001
    703,  0.300000012, 0.0324999988,  0.899999976
    704,  0.300000012, 0.0324999988,  0.800000012
    705,  0.300000012, 0.0324999988,  0.699999988
    706,  0.300000012, 0.0324999988,  0.600000024
    707,  0.300000012, 0.0324999988,          0.5
    708,  0.300000012, 0.0324999988,  0.400000006
    709,  0.300000012, 0.0324999988,  0.300000012
    710,  0.300000012, 0.0324999988,  0.200000003
    711,  0.300000012, 0.0324999988,  0.100000001
    712,  0.300000012,  0.057500001,  0.899999976
    713,  0.300000012,  0.057500001,  0.800000012
    714,  0.300000012,  0.057500001,  0.699999988
    715,  0.300000012,  0.057500001,  0.600000024
    716,  0.300000012,  0.057500001,          0.5
    717,  0.300000012,  0.057500001,  0.400000006
    718,  0.300000012,  0.057500001,  0.300000012
    719,  0.300000012,  0.057500001,  0.200000003
    720,  0.300000012,  0.057500001,  0.100000001
    721,  0.200000003, 0.0324999988,  0.899999976
    722,  0.200000003, 0.0324999988,  0.800000012
    723,  0.200000003, 0.0324999988,  0.699999988
    724,  0.200000003, 0.0324999988,  0.600000024
    725,  0.200000003, 0.0324999988,          0.5
    726,  0.200000003, 0.0324999988,  0.400000006
    727,  0.200000003, 0.0324999988,  0.300000012
    728,  0.200000003, 0.0324999988,  0.200000003
    729,  0.200000003, 0.0324999988,  0.100000001
    730,  0.200000003,  0.057500001,  0.899999976
    731,  0.200000003,  0.057500001,  0.800000012
    732,  0.200000003,  0.057500001,  0.699999988
    733,  0.200000003,  0.057500001,  0.600000024
    734,  0.200000003,  0.057500001,          0.5
    735,  0.200000003,  0.057500001,  0.400000006
    736,  0.200000003,  0.057500001,  0.300000012
    737,  0.200000003,  0.057500001,  0.200000003
    738,  0.200000003,  0.057500001,  0.100000001
    739,  0.100000001, 0.0324999988,  0.899999976
    740,  0.100000001, 0.0324999988,  0.800000012
    741,  0.100000001, 0.0324999988,  0.699999988
    742,  0.100000001, 0.0324999988,  0.600000024
    743,  0.100000001, 0.0324999988,          0.5
    744,  0.100000001, 0.0324999988,  0.400000006
    745,  0.100000001, 0.0324999988,  0.300000012
    746,  0.100000001, 0.0324999988,  0.200000003
    747,  0.100000001, 0.0324999988,  0.100000001
    748,  0.100000001,  0.057500001,  0.899999976
    749,  0.100000001,  0.057500001,  0.800000012
    750,  0.100000001,  0.057500001,  0.699999988
    751,  0.100000001,  0.057500001,  0.600000024
    752,  0.100000001,  0.057500001,          0.5
    753,  0.100000001,  0.057500001,  0.400000006
    754,  0.100000001,  0.057500001,  0.300000012
    755,  0.100000001,  0.057500001,  0.200000003
    756,  0.100000001,  0.057500001,  0.100000001
    757,           0., 0.0324999988,  0.899999976
    758,           0., 0.0324999988,  0.800000012
    759,           0., 0.0324999988,  0.699999988
    760,           0., 0.0324999988,  0.600000024
    761,           0., 0.0324999988,          0.5
    762,           0., 0.0324999988,  0.400000006
    763,           0., 0.0324999988,  0.300000012
    764,           0., 0.0324999988,  0.200000003
    765,           0., 0.0324999988,  0.100000001
    766,           0.,  0.057500001,  0.899999976
    767,           0.,  0.057500001,  0.800000012
    768,           0.,  0.057500001,  0.699999988
    769,           0.,  0.057500001,  0.600000024
    770,           0.,  0.057500001,          0.5
    771,           0.,  0.057500001,  0.400000006
    772,           0.,  0.057500001,  0.300000012
    773,           0.,  0.057500001,  0.200000003
    774,           0.,  0.057500001,  0.100000001
    775, -0.100000001, 0.0324999988,  0.899999976
    776, -0.100000001, 0.0324999988,  0.800000012
    777, -0.100000001, 0.0324999988,  0.699999988
    778, -0.100000001, 0.0324999988,  0.600000024
    779, -0.100000001, 0.0324999988,          0.5
    780, -0.100000001, 0.0324999988,  0.400000006
    781, -0.100000001, 0.0324999988,  0.300000012
    782, -0.100000001, 0.0324999988,  0.200000003
    783, -0.100000001, 0.0324999988,  0.100000001
    784, -0.100000001,  0.057500001,  0.899999976
    785, -0.100000001,  0.057500001,  0.800000012
    786, -0.100000001,  0.057500001,  0.699999988
    787, -0.100000001,  0.057500001,  0.600000024
    788, -0.100000001,  0.057500001,          0.5
    789, -0.100000001,  0.057500001,  0.400000006
    790, -0.100000001,  0.057500001,  0.300000012
    791, -0.100000001,  0.057500001,  0.200000003
    792, -0.100000001,  0.057500001,  0.100000001
    793, -0.200000003, 0.0324999988,  0.899999976
    794, -0.200000003, 0.0324999988,  0.800000012
    795, -0.200000003, 0.0324999988,  0.699999988
    796, -0.200000003, 0.0324999988,  0.600000024
    797, -0.200000003, 0.0324999988,          0.5
    798, -0.200000003, 0.0324999988,  0.400000006
    799, -0.200000003, 0.0324999988,  0.300000012
    800, -0.200000003, 0.0324999988,  0.200000003
    801, -0.200000003, 0.0324999988,  0.100000001
    802, -0.200000003,  0.057500001,  0.899999976
    803, -0.200000003,  0.057500001,  0.800000012
    804, -0.200000003,  0.057500001,  0.699999988
    805, -0.200000003,  0.057500001,  0.600000024
    806, -0.200000003,  0.057500001,          0.5
    807, -0.200000003,  0.057500001,  0.400000006
    808, -0.200000003,  0.057500001,  0.300000012
    809, -0.200000003,  0.057500001,  0.200000003
    810, -0.200000003,  0.057500001,  0.100000001
    811, -0.300000012, 0.0324999988,  0.899999976
    812, -0.300000012, 0.0324999988,  0.800000012
    813, -0.300000012, 0.0324999988,  0.699999988
    814, -0.300000012, 0.0324999988,  0.600000024
    815, -0.300000012, 0.0324999988,          0.5
    816, -0.300000012, 0.0324999988,  0.400000006
    817, -0.300000012, 0.0324999988,  0.300000012
    818, -0.300000012, 0.0324999988,  0.200000003
    819, -0.300000012, 0.0324999988,  0.100000001
    820, -0.300000012,  0.057500001,  0.899999976
    821, -0.300000012,  0.057500001,  0.800000012
    822, -0.300000012,  0.057500001,  0.699999988
    823, -0.300000012,  0.057500001,  0.600000024
    824, -0.300000012,  0.057500001,          0.5
    825, -0.300000012,  0.057500001,  0.400000006
    826, -0.300000012,  0.057500001,  0.300000012
    827, -0.300000012,  0.057500001,  0.200000003
    828, -0.300000012,  0.057500001,  0.100000001
    829, -0.400000006, 0.0324999988,  0.899999976
    830, -0.400000006, 0.0324999988,  0.800000012
    831, -0.400000006, 0.0324999988,  0.699999988
    832, -0.400000006, 0.0324999988,  0.600000024
    833, -0.400000006, 0.0324999988,          0.5
    834, -0.400000006, 0.0324999988,  0.400000006
    835, -0.400000006, 0.0324999988,  0.300000012
    836, -0.400000006, 0.0324999988,  0.200000003
    837, -0.400000006, 0.0324999988,  0.100000001
    838, -0.400000006,  0.057500001,  0.899999976
    839, -0.400000006,  0.057500001,  0.800000012
    840, -0.400000006,  0.057500001,  0.699999988
    841, -0.400000006,  0.057500001,  0.600000024
    842, -0.400000006,  0.057500001,          0.5
    843, -0.400000006,  0.057500001,  0.400000006
    844, -0.400000006,  0.057500001,  0.300000012
    845, -0.400000006,  0.057500001,  0.200000003
    846, -0.400000006,  0.057500001,  0.100000001
    847,  0.400000006, -0.0324999988,  0.100000001
    848,  0.400000006, -0.0324999988,  0.200000003
    849,  0.400000006, -0.0324999988,  0.300000012
    850,  0.400000006, -0.0324999988,  0.400000006
    851,  0.400000006, -0.0324999988,          0.5
    852,  0.400000006, -0.0324999988,  0.600000024
    853,  0.400000006, -0.0324999988,  0.699999988
    854,  0.400000006, -0.0324999988,  0.800000012
    855,  0.400000006, -0.0324999988,  0.899999976
    856,  0.400000006, -0.057500001,  0.100000001
    857,  0.400000006, -0.057500001,  0.200000003
    858,  0.400000006, -0.057500001,  0.300000012
    859,  0.400000006, -0.057500001,  0.400000006
    860,  0.400000006, -0.057500001,          0.5
    861,  0.400000006, -0.057500001,  0.600000024
    862,  0.400000006, -0.057500001,  0.699999988
    863,  0.400000006, -0.057500001,  0.800000012
    864,  0.400000006, -0.057500001,  0.899999976
    865,  0.300000012, -0.0324999988,  0.100000001
    866,  0.300000012, -0.0324999988,  0.200000003
    867,  0.300000012, -0.0324999988,  0.300000012
    868,  0.300000012, -0.0324999988,  0.400000006
    869,  0.300000012, -0.0324999988,          0.5
    870,  0.300000012, -0.0324999988,  0.600000024
    871,  0.300000012, -0.0324999988,  0.699999988
    872,  0.300000012, -0.0324999988,  0.800000012
    873,  0.300000012, -0.0324999988,  0.899999976
    874,  0.300000012, -0.057500001,  0.100000001
    875,  0.300000012, -0.057500001,  0.200000003
    876,  0.300000012, -0.057500001,  0.300000012
    877,  0.300000012, -0.057500001,  0.400000006
    878,  0.300000012, -0.057500001,          0.5
    879,  0.300000012, -0.057500001,  0.600000024
    880,  0.300000012, -0.057500001,  0.699999988
    881,  0.300000012, -0.057500001,  0.800000012
    882,  0.300000012, -0.057500001,  0.899999976
    883,  0.200000003, -0.0324999988,  0.100000001
    884,  0.200000003, -0.0324999988,  0.200000003
    885,  0.200000003, -0.0324999988,  0.300000012
    886,  0.200000003, -0.0324999988,  0.400000006
    887,  0.200000003, -0.0324999988,          0.5
    888,  0.200000003, -0.0324999988,  0.600000024
    889,  0.200000003, -0.0324999988,  0.699999988
    890,  0.200000003, -0.0324999988,  0.800000012
    891,  0.200000003, -0.0324999988,  0.899999976
    892,  0.200000003, -0.057500001,  0.100000001
    893,  0.200000003, -0.057500001,  0.200000003
    894,  0.200000003, -0.057500001,  0.300000012
    895,  0.200000003, -0.057500001,  0.400000006
    896,  0.200000003, -0.057500001,          0.5
    897,  0.200000003, -0.057500001,  0.600000024
    898,  0.200000003, -0.057500001,  0.699999988
    899,  0.200000003, -0.057500001,  0.800000012
    900,  0.200000003, -0.057500001,  0.899999976
    901,  0.100000001, -0.0324999988,  0.100000001
    902,  0.100000001, -0.0324999988,  0.200000003
    903,  0.100000001, -0.0324999988,  0.300000012
    904,  0.100000001, -0.0324999988,  0.400000006
    905,  0.100000001, -0.0324999988,          0.5
    906,  0.100000001, -0.0324999988,  0.600000024
    907,  0.100000001, -0.0324999988,  0.699999988
    908,  0.100000001, -0.0324999988,  0.800000012
    909,  0.100000001, -0.0324999988,  0.899999976
    910,  0.100000001, -0.057500001,  0.100000001
    911,  0.100000001, -0.057500001,  0.200000003
    912,  0.100000001, -0.057500001,  0.300000012
    913,  0.100000001, -0.057500001,  0.400000006
    914,  0.100000001, -0.057500001,          0.5
    915,  0.100000001, -0.057500001,  0.600000024
    916,  0.100000001, -0.057500001,  0.699999988
    917,  0.100000001, -0.057500001,  0.800000012
    918,  0.100000001, -0.057500001,  0.899999976
    919,           0., -0.0324999988,  0.100000001
    920,           0., -0.0324999988,  0.200000003
    921,           0., -0.0324999988,  0.300000012
    922,           0., -0.0324999988,  0.400000006
    923,           0., -0.0324999988,          0.5
    924,           0., -0.0324999988,  0.600000024
    925,           0., -0.0324999988,  0.699999988
    926,           0., -0.0324999988,  0.800000012
    927,           0., -0.0324999988,  0.899999976
    928,           0., -0.057500001,  0.100000001
    929,           0., -0.057500001,  0.200000003
    930,           0., -0.057500001,  0.300000012
    931,           0., -0.057500001,  0.400000006
    932,           0., -0.057500001,          0.5
    933,           0., -0.057500001,  0.600000024
    934,           0., -0.057500001,  0.699999988
    935,           0., -0.057500001,  0.800000012
    936,           0., -0.057500001,  0.899999976
    937, -0.100000001, -0.0324999988,  0.100000001
    938, -0.100000001, -0.0324999988,  0.200000003
    939, -0.100000001, -0.0324999988,  0.300000012
    940, -0.100000001, -0.0324999988,  0.400000006
    941, -0.100000001, -0.0324999988,          0.5
    942, -0.100000001, -0.0324999988,  0.600000024
    943, -0.100000001, -0.0324999988,  0.699999988
    944, -0.100000001, -0.0324999988,  0.800000012
    945, -0.100000001, -0.0324999988,  0.899999976
    946, -0.100000001, -0.057500001,  0.100000001
    947, -0.100000001, -0.057500001,  0.200000003
    948, -0.100000001, -0.057500001,  0.300000012
    949, -0.100000001, -0.057500001,  0.400000006
    950, -0.100000001, -0.057500001,          0.5
    951, -0.100000001, -0.057500001,  0.600000024
    952, -0.100000001, -0.057500001,  0.699999988
    953, -0.100000001, -0.057500001,  0.800000012
    954, -0.100000001, -0.057500001,  0.899999976
    955, -0.200000003, -0.0324999988,  0.100000001
    956, -0.200000003, -0.0324999988,  0.200000003
    957, -0.200000003, -0.0324999988,  0.300000012
    958, -0.200000003, -0.0324999988,  0.400000006
    959, -0.200000003, -0.0324999988,          0.5
    960, -0.200000003, -0.0324999988,  0.600000024
    961, -0.200000003, -0.0324999988,  0.699999988
    962, -0.200000003, -0.0324999988,  0.800000012
    963, -0.200000003, -0.0324999988,  0.899999976
    964, -0.200000003, -0.057500001,  0.100000001
    965, -0.200000003, -0.057500001,  0.200000003
    966, -0.200000003, -0.057500001,  0.300000012
    967, -0.200000003, -0.057500001,  0.400000006
    968, -0.200000003, -0.057500001,          0.5
    969, -0.200000003, -0.057500001,  0.600000024
    970, -0.200000003, -0.057500001,  0.699999988
    971, -0.200000003, -0.057500001,  0.800000012
    972, -0.200000003, -0.057500001,  0.899999976
    973, -0.300000012, -0.0324999988,  0.100000001
    974, -0.300000012, -0.0324999988,  0.200000003
    975, -0.300000012, -0.0324999988,  0.300000012
    976, -0.300000012, -0.0324999988,  0.400000006
    977, -0.300000012, -0.0324999988,          0.5
    978, -0.300000012, -0.0324999988,  0.600000024
    979, -0.300000012, -0.0324999988,  0.699999988
    980, -0.300000012, -0.0324999988,  0.800000012
    981, -0.300000012, -0.0324999988,  0.899999976
    982, -0.300000012, -0.057500001,  0.100000001
    983, -0.300000012, -0.057500001,  0.200000003
    984, -0.300000012, -0.057500001,  0.300000012
    985, -0.300000012, -0.057500001,  0.400000006
    986, -0.300000012, -0.057500001,          0.5
    987, -0.300000012, -0.057500001,  0.600000024
    988, -0.300000012, -0.057500001,  0.699999988
    989, -0.300000012, -0.057500001,  0.800000012
    990, -0.300000012, -0.057500001,  0.899999976
    991, -0.400000006, -0.0324999988,  0.100000001
    992, -0.400000006, -0.0324999988,  0.200000003
    993, -0.400000006, -0.0324999988,  0.300000012
    994, -0.400000006, -0.0324999988,  0.400000006
    995, -0.400000006, -0.0324999988,          0.5
    996, -0.400000006, -0.0324999988,  0.600000024
    997, -0.400000006, -0.0324999988,  0.699999988
    998, -0.400000006, -0.0324999988,  0.800000012
    999, -0.400000006, -0.0324999988,  0.899999976
   1000, -0.400000006, -0.057500001,  0.100000001
   1001, -0.400000006, -0.057500001,  0.200000003
   1002, -0.400000006, -0.057500001,  0.300000012
   1003, -0.400000006, -0.057500001,  0.400000006
   1004, -0.400000006, -0.057500001,          0.5
   1005, -0.400000006, -0.057500001,  0.600000024
   1006, -0.400000006, -0.057500001,  0.699999988
   1007, -0.400000006, -0.057500001,  0.800000012
   1008, -0.400000006, -0.057500001,  0.899999976
   1009,  0.400000006,           0.,  0.100000001
   1010,  0.400000006,           0.,  0.200000003
   1011,  0.400000006,           0.,  0.300000012
   1012,  0.400000006,           0.,  0.400000006
   1013,  0.400000006,           0.,          0.5
   1014,  0.400000006,           0.,  0.600000024
   1015,  0.400000006,           0.,  0.699999988
   1016,  0.400000006,           0.,  0.800000012
   1017,  0.400000006,           0.,  0.899999976
   1018,  0.300000012,           0.,  0.100000001
   1019,  0.300000012,           0.,  0.200000003
   1020,  0.300000012,           0.,  0.300000012
   1021,  0.300000012,           0.,  0.400000006
   1022,  0.300000012,           0.,          0.5
   1023,  0.300000012,           0.,  0.600000024
   1024,  0.300000012,           0.,  0.699999988
   1025,  0.300000012,           0.,  0.800000012
   1026,  0.300000012,           0.,  0.899999976
   1027,  0.200000003,           0.,  0.100000001
   1028,  0.200000003,           0.,  0.200000003
   1029,  0.200000003,           0.,  0.300000012
   1030,  0.200000003,           0.,  0.400000006
   1031,  0.200000003,           0.,          0.5
   1032,  0.200000003,           0.,  0.600000024
   1033,  0.200000003,           0.,  0.699999988
   1034,  0.200000003,           0.,  0.800000012
   1035,  0.200000003,           0.,  0.899999976
   1036,  0.100000001,           0.,  0.100000001
   1037,  0.100000001,           0.,  0.200000003
   1038,  0.100000001,           0.,  0.300000012
   1039,  0.100000001,           0.,  0.400000006
   1040,  0.100000001,           0.,          0.5
   1041,  0.100000001,           0.,  0.600000024
   1042,  0.100000001,           0.,  0.699999988
   1043,  0.100000001,           0.,  0.800000012
   1044,  0.100000001,           0.,  0.899999976
   1045,           0.,           0.,  0.100000001
   1046,           0.,           0.,  0.200000003
   1047,           0.,           0.,  0.300000012
   1048,           0.,           0.,  0.400000006
   1049,           0.,           0.,          0.5
   1050,           0.,           0.,  0.600000024
   1051,           0.,           0.,  0.699999988
   1052,           0.,           0.,  0.800000012
   1053,           0.,           0.,  0.899999976
   1054, -0.100000001,           0.,  0.100000001
   1055, -0.100000001,           0.,  0.200000003
   1056, -0.100000001,           0.,  0.300000012
   1057, -0.100000001,           0.,  0.400000006
   1058, -0.100000001,           0.,          0.5
   1059, -0.100000001,           0.,  0.600000024
   1060, -0.100000001,           0.,  0.699999988
   1061, -0.100000001,           0.,  0.800000012
   1062, -0.100000001,           0.,  0.899999976
   1063, -0.200000003,           0.,  0.100000001
   1064, -0.200000003,           0.,  0.200000003
   1065, -0.200000003,           0.,  0.300000012
   1066, -0.200000003,           0.,  0.400000006
   1067, -0.200000003,           0.,          0.5
   1068, -0.200000003,           0.,  0.600000024
   1069, -0.200000003,           0.,  0.699999988
   1070, -0.200000003,           0.,  0.800000012
   1071, -0.200000003,           0.,  0.899999976
   1072, -0.300000012,           0.,  0.100000001
   1073, -0.300000012,           0.,  0.200000003
   1074, -0.300000012,           0.,  0.300000012
   1075, -0.300000012,           0.,  0.400000006
   1076, -0.300000012,           0.,          0.5
   1077, -0.300000012,           0.,  0.600000024
   1078, -0.300000012,           0.,  0.699999988
   1079, -0.300000012,           0.,  0.800000012
   1080, -0.300000012,           0.,  0.899999976
   1081, -0.400000006,           0.,  0.100000001
   1082, -0.400000006,           0.,  0.200000003
   1083, -0.400000006,           0.,  0.300000012
   1084, -0.400000006,           0.,  0.400000006
   1085, -0.400000006,           0.,          0.5
   1086, -0.400000006,           0.,  0.600000024
   1087, -0.400000006,           0.,  0.699999988
   1088, -0.400000006,           0.,  0.800000012
   1089, -0.400000006,           0.,  0.899999976
*Element, type=C3D8R
  1,  78, 253, 685, 217,   1,  17, 181,  38
  2, 253, 254, 686, 685,  17,  18, 182, 181
  3, 254, 255, 687, 686,  18,  19, 183, 182
  4, 255, 256, 688, 687,  19,  20, 184, 183
  5, 256, 257, 689, 688,  20,  21, 185, 184
  6, 257, 258, 690, 689,  21,  22, 186, 185
  7, 258, 259, 691, 690,  22,  23, 187, 186
  8, 259, 260, 692, 691,  23,  24, 188, 187
  9, 260, 261, 693, 692,  24,  25, 189, 188
 10, 261,  88, 235, 693,  25,   2,  26, 189
 11, 217, 685, 694, 218,  38, 181, 190,  37
 12, 685, 686, 695, 694, 181, 182, 191, 190
 13, 686, 687, 696, 695, 182, 183, 192, 191
 14, 687, 688, 697, 696, 183, 184, 193, 192
 15, 688, 689, 698, 697, 184, 185, 194, 193
 16, 689, 690, 699, 698, 185, 186, 195, 194
 17, 690, 691, 700, 699, 186, 187, 196, 195
 18, 691, 692, 701, 700, 187, 188, 197, 196
 19, 692, 693, 702, 701, 188, 189, 198, 197
 20, 693, 235, 236, 702, 189,  26,  27, 198
 21, 218, 694, 334,  61,  37, 190,  36,   4
 22, 694, 695, 335, 334, 190, 191,  35,  36
 23, 695, 696, 336, 335, 191, 192,  34,  35
 24, 696, 697, 337, 336, 192, 193,  33,  34
 25, 697, 698, 338, 337, 193, 194,  32,  33
 26, 698, 699, 339, 338, 194, 195,  31,  32
 27, 699, 700, 340, 339, 195, 196,  30,  31
 28, 700, 701, 341, 340, 196, 197,  29,  30
 29, 701, 702, 342, 341, 197, 198,  28,  29
 30, 702, 236,  87, 342, 198,  27,   3,  28
 31,  77, 262, 703, 219,  78, 253, 685, 217
 32, 262, 263, 704, 703, 253, 254, 686, 685
 33, 263, 264, 705, 704, 254, 255, 687, 686
 34, 264, 265, 706, 705, 255, 256, 688, 687
 35, 265, 266, 707, 706, 256, 257, 689, 688
 36, 266, 267, 708, 707, 257, 258, 690, 689
 37, 267, 268, 709, 708, 258, 259, 691, 690
 38, 268, 269, 710, 709, 259, 260, 692, 691
 39, 269, 270, 711, 710, 260, 261, 693, 692
 40, 270,  89, 237, 711, 261,  88, 235, 693
 41, 219, 703, 712, 220, 217, 685, 694, 218
 42, 703, 704, 713, 712, 685, 686, 695, 694
 43, 704, 705, 714, 713, 686, 687, 696, 695
 44, 705, 706, 715, 714, 687, 688, 697, 696
 45, 706, 707, 716, 715, 688, 689, 698, 697
 46, 707, 708, 717, 716, 689, 690, 699, 698
 47, 708, 709, 718, 717, 690, 691, 700, 699
 48, 709, 710, 719, 718, 691, 692, 701, 700
 49, 710, 711, 720, 719, 692, 693, 702, 701
 50, 711, 237, 238, 720, 693, 235, 236, 702
 51, 220, 712, 343,  62, 218, 694, 334,  61
 52, 712, 713, 344, 343, 694, 695, 335, 334
 53, 713, 714, 345, 344, 695, 696, 336, 335
 54, 714, 715, 346, 345, 696, 697, 337, 336
 55, 715, 716, 347, 346, 697, 698, 338, 337
 56, 716, 717, 348, 347, 698, 699, 339, 338
 57, 717, 718, 349, 348, 699, 700, 340, 339
 58, 718, 719, 350, 349, 700, 701, 341, 340
 59, 719, 720, 351, 350, 701, 702, 342, 341
 60, 720, 238,  86, 351, 702, 236,  87, 342
 61,  76, 271, 721, 221,  77, 262, 703, 219
 62, 271, 272, 722, 721, 262, 263, 704, 703
 63, 272, 273, 723, 722, 263, 264, 705, 704
 64, 273, 274, 724, 723, 264, 265, 706, 705
 65, 274, 275, 725, 724, 265, 266, 707, 706
 66, 275, 276, 726, 725, 266, 267, 708, 707
 67, 276, 277, 727, 726, 267, 268, 709, 708
 68, 277, 278, 728, 727, 268, 269, 710, 709
 69, 278, 279, 729, 728, 269, 270, 711, 710
 70, 279,  90, 239, 729, 270,  89, 237, 711
 71, 221, 721, 730, 222, 219, 703, 712, 220
 72, 721, 722, 731, 730, 703, 704, 713, 712
 73, 722, 723, 732, 731, 704, 705, 714, 713
 74, 723, 724, 733, 732, 705, 706, 715, 714
 75, 724, 725, 734, 733, 706, 707, 716, 715
 76, 725, 726, 735, 734, 707, 708, 717, 716
 77, 726, 727, 736, 735, 708, 709, 718, 717
 78, 727, 728, 737, 736, 709, 710, 719, 718
 79, 728, 729, 738, 737, 710, 711, 720, 719
 80, 729, 239, 240, 738, 711, 237, 238, 720
 81, 222, 730, 352,  63, 220, 712, 343,  62
 82, 730, 731, 353, 352, 712, 713, 344, 343
 83, 731, 732, 354, 353, 713, 714, 345, 344
 84, 732, 733, 355, 354, 714, 715, 346, 345
 85, 733, 734, 356, 355, 715, 716, 347, 346
 86, 734, 735, 357, 356, 716, 717, 348, 347
 87, 735, 736, 358, 357, 717, 718, 349, 348
 88, 736, 737, 359, 358, 718, 719, 350, 349
 89, 737, 738, 360, 359, 719, 720, 351, 350
 90, 738, 240,  85, 360, 720, 238,  86, 351
 91,  75, 280, 739, 223,  76, 271, 721, 221
 92, 280, 281, 740, 739, 271, 272, 722, 721
 93, 281, 282, 741, 740, 272, 273, 723, 722
 94, 282, 283, 742, 741, 273, 274, 724, 723
 95, 283, 284, 743, 742, 274, 275, 725, 724
 96, 284, 285, 744, 743, 275, 276, 726, 725
 97, 285, 286, 745, 744, 276, 277, 727, 726
 98, 286, 287, 746, 745, 277, 278, 728, 727
 99, 287, 288, 747, 746, 278, 279, 729, 728
100, 288,  91, 241, 747, 279,  90, 239, 729
101, 223, 739, 748, 224, 221, 721, 730, 222
102, 739, 740, 749, 748, 721, 722, 731, 730
103, 740, 741, 750, 749, 722, 723, 732, 731
104, 741, 742, 751, 750, 723, 724, 733, 732
105, 742, 743, 752, 751, 724, 725, 734, 733
106, 743, 744, 753, 752, 725, 726, 735, 734
107, 744, 745, 754, 753, 726, 727, 736, 735
108, 745, 746, 755, 754, 727, 728, 737, 736
109, 746, 747, 756, 755, 728, 729, 738, 737
110, 747, 241, 242, 756, 729, 239, 240, 738
111, 224, 748, 361,  64, 222, 730, 352,  63
112, 748, 749, 362, 361, 730, 731, 353, 352
113, 749, 750, 363, 362, 731, 732, 354, 353
114, 750, 751, 364, 363, 732, 733, 355, 354
115, 751, 752, 365, 364, 733, 734, 356, 355
116, 752, 753, 366, 365, 734, 735, 357, 356
117, 753, 754, 367, 366, 735, 736, 358, 357
118, 754, 755, 368, 367, 736, 737, 359, 358
119, 755, 756, 369, 368, 737, 738, 360, 359
120, 756, 242,  84, 369, 738, 240,  85, 360
121,  74, 289, 757, 225,  75, 280, 739, 223
122, 289, 290, 758, 757, 280, 281, 740, 739
123, 290, 291, 759, 758, 281, 282, 741, 740
124, 291, 292, 760, 759, 282, 283, 742, 741
125, 292, 293, 761, 760, 283, 284, 743, 742
126, 293, 294, 762, 761, 284, 285, 744, 743
127, 294, 295, 763, 762, 285, 286, 745, 744
128, 295, 296, 764, 763, 286, 287, 746, 745
129, 296, 297, 765, 764, 287, 288, 747, 746
130, 297,  92, 243, 765, 288,  91, 241, 747
131, 225, 757, 766, 226, 223, 739, 748, 224
132, 757, 758, 767, 766, 739, 740, 749, 748
133, 758, 759, 768, 767, 740, 741, 750, 749
134, 759, 760, 769, 768, 741, 742, 751, 750
135, 760, 761, 770, 769, 742, 743, 752, 751
136, 761, 762, 771, 770, 743, 744, 753, 752
137, 762, 763, 772, 771, 744, 745, 754, 753
138, 763, 764, 773, 772, 745, 746, 755, 754
139, 764, 765, 774, 773, 746, 747, 756, 755
140, 765, 243, 244, 774, 747, 241, 242, 756
141, 226, 766, 370,  65, 224, 748, 361,  64
142, 766, 767, 371, 370, 748, 749, 362, 361
143, 767, 768, 372, 371, 749, 750, 363, 362
144, 768, 769, 373, 372, 750, 751, 364, 363
145, 769, 770, 374, 373, 751, 752, 365, 364
146, 770, 771, 375, 374, 752, 753, 366, 365
147, 771, 772, 376, 375, 753, 754, 367, 366
148, 772, 773, 377, 376, 754, 755, 368, 367
149, 773, 774, 378, 377, 755, 756, 369, 368
150, 774, 244,  83, 378, 756, 242,  84, 369
151,  73, 298, 775, 227,  74, 289, 757, 225
152, 298, 299, 776, 775, 289, 290, 758, 757
153, 299, 300, 777, 776, 290, 291, 759, 758
154, 300, 301, 778, 777, 291, 292, 760, 759
155, 301, 302, 779, 778, 292, 293, 761, 760
156, 302, 303, 780, 779, 293, 294, 762, 761
157, 303, 304, 781, 780, 294, 295, 763, 762
158, 304, 305, 782, 781, 295, 296, 764, 763
159, 305, 306, 783, 782, 296, 297, 765, 764
160, 306,  93, 245, 783, 297,  92, 243, 765
161, 227, 775, 784, 228, 225, 757, 766, 226
162, 775, 776, 785, 784, 757, 758, 767, 766
163, 776, 777, 786, 785, 758, 759, 768, 767
164, 777, 778, 787, 786, 759, 760, 769, 768
165, 778, 779, 788, 787, 760, 761, 770, 769
166, 779, 780, 789, 788, 761, 762, 771, 770
167, 780, 781, 790, 789, 762, 763, 772, 771
168, 781, 782, 791, 790, 763, 764, 773, 772
169, 782, 783, 792, 791, 764, 765, 774, 773
170, 783, 245, 246, 792, 765, 243, 244, 774
171, 228, 784, 379,  66, 226, 766, 370,  65
172, 784, 785, 380, 379, 766, 767, 371, 370
173, 785, 786, 381, 380, 767, 768, 372, 371
174, 786, 787, 382, 381, 768, 769, 373, 372
175, 787, 788, 383, 382, 769, 770, 374, 373
176, 788, 789, 384, 383, 770, 771, 375, 374
177, 789, 790, 385, 384, 771, 772, 376, 375
178, 790, 791, 386, 385, 772, 773, 377, 376
179, 791, 792, 387, 386, 773, 774, 378, 377
180, 792, 246,  82, 387, 774, 244,  83, 378
181,  72, 307, 793, 229,  73, 298, 775, 227
182, 307, 308, 794, 793, 298, 299, 776, 775
183, 308, 309, 795, 794, 299, 300, 777, 776
184, 309, 310, 796, 795, 300, 301, 778, 777
185, 310, 311, 797, 796, 301, 302, 779, 778
186, 311, 312, 798, 797, 302, 303, 780, 779
187, 312, 313, 799, 798, 303, 304, 781, 780
188, 313, 314, 800, 799, 304, 305, 782, 781
189, 314, 315, 801, 800, 305, 306, 783, 782
190, 315,  94, 247, 801, 306,  93, 245, 783
191, 229, 793, 802, 230, 227, 775, 784, 228
192, 793, 794, 803, 802, 775, 776, 785, 784
193, 794, 795, 804, 803, 776, 777, 786, 785
194, 795, 796, 805, 804, 777, 778, 787, 786
195, 796, 797, 806, 805, 778, 779, 788, 787
196, 797, 798, 807, 806, 779, 780, 789, 788
197, 798, 799, 808, 807, 780, 781, 790, 789
198, 799, 800, 809, 808, 781, 782, 791, 790
199, 800, 801, 810, 809, 782, 783, 792, 791
200, 801, 247, 248, 810, 783, 245, 246, 792
201, 230, 802, 388,  67, 228, 784, 379,  66
202, 802, 803, 389, 388, 784, 785, 380, 379
203, 803, 804, 390, 389, 785, 786, 381, 380
204, 804, 805, 391, 390, 786, 787, 382, 381
205, 805, 806, 392, 391, 787, 788, 383, 382
206, 806, 807, 393, 392, 788, 789, 384, 383
207, 807, 808, 394, 393, 789, 790, 385, 384
208, 808, 809, 395, 394, 790, 791, 386, 385
209, 809, 810, 396, 395, 791, 792, 387, 386
210, 810, 248,  81, 396, 792, 246,  82, 387
211,  71, 316, 811, 231,  72, 307, 793, 229
212, 316, 317, 812, 811, 307, 308, 794, 793
213, 317, 318, 813, 812, 308, 309, 795, 794
214, 318, 319, 814, 813, 309, 310, 796, 795
215, 319, 320, 815, 814, 310, 311, 797, 796
216, 320, 321, 816, 815, 311, 312, 798, 797
217, 321, 322, 817, 816, 312, 313, 799, 798
218, 322, 323, 818, 817, 313, 314, 800, 799
219, 323, 324, 819, 818, 314, 315, 801, 800
220, 324,  95, 249, 819, 315,  94, 247, 801
221, 231, 811, 820, 232, 229, 793, 802, 230
222, 811, 812, 821, 820, 793, 794, 803, 802
223, 812, 813, 822, 821, 794, 795, 804, 803
224, 813, 814, 823, 822, 795, 796, 805, 804
225, 814, 815, 824, 823, 796, 797, 806, 805
226, 815, 816, 825, 824, 797, 798, 807, 806
227, 816, 817, 826, 825, 798, 799, 808, 807
228, 817, 818, 827, 826, 799, 800, 809, 808
229, 818, 819, 828, 827, 800, 801, 810, 809
230, 819, 249, 250, 828, 801, 247, 248, 810
231, 232, 820, 397,  68, 230, 802, 388,  67
232, 820, 821, 398, 397, 802, 803, 389, 388
233, 821, 822, 399, 398, 803, 804, 390, 389
234, 822, 823, 400, 399, 804, 805, 391, 390
235, 823, 824, 401, 400, 805, 806, 392, 391
236, 824, 825, 402, 401, 806, 807, 393, 392
237, 825, 826, 403, 402, 807, 808, 394, 393
238, 826, 827, 404, 403, 808, 809, 395, 394
239, 827, 828, 405, 404, 809, 810, 396, 395
240, 828, 250,  80, 405, 810, 248,  81, 396
241,  70, 325, 829, 233,  71, 316, 811, 231
242, 325, 326, 830, 829, 316, 317, 812, 811
243, 326, 327, 831, 830, 317, 318, 813, 812
244, 327, 328, 832, 831, 318, 319, 814, 813
245, 328, 329, 833, 832, 319, 320, 815, 814
246, 329, 330, 834, 833, 320, 321, 816, 815
247, 330, 331, 835, 834, 321, 322, 817, 816
248, 331, 332, 836, 835, 322, 323, 818, 817
249, 332, 333, 837, 836, 323, 324, 819, 818
250, 333,  96, 251, 837, 324,  95, 249, 819
251, 233, 829, 838, 234, 231, 811, 820, 232
252, 829, 830, 839, 838, 811, 812, 821, 820
253, 830, 831, 840, 839, 812, 813, 822, 821
254, 831, 832, 841, 840, 813, 814, 823, 822
255, 832, 833, 842, 841, 814, 815, 824, 823
256, 833, 834, 843, 842, 815, 816, 825, 824
257, 834, 835, 844, 843, 816, 817, 826, 825
258, 835, 836, 845, 844, 817, 818, 827, 826
259, 836, 837, 846, 845, 818, 819, 828, 827
260, 837, 251, 252, 846, 819, 249, 250, 828
261, 234, 838, 406,  69, 232, 820, 397,  68
262, 838, 839, 407, 406, 820, 821, 398, 397
263, 839, 840, 408, 407, 821, 822, 399, 398
264, 840, 841, 409, 408, 822, 823, 400, 399
265, 841, 842, 410, 409, 823, 824, 401, 400
266, 842, 843, 411, 410, 824, 825, 402, 401
267, 843, 844, 412, 411, 825, 826, 403, 402
268, 844, 845, 413, 412, 826, 827, 404, 403
269, 845, 846, 414, 413, 827, 828, 405, 404
270, 846, 252,  79, 414, 828, 250,  80, 405
271,   8,  47, 199,  59,  70, 325, 829, 233
272,  47,  46, 200, 199, 325, 326, 830, 829
273,  46,  45, 201, 200, 326, 327, 831, 830
274,  45,  44, 202, 201, 327, 328, 832, 831
275,  44,  43, 203, 202, 328, 329, 833, 832
276,  43,  42, 204, 203, 329, 330, 834, 833
277,  42,  41, 205, 204, 330, 331, 835, 834
278,  41,  40, 206, 205, 331, 332, 836, 835
279,  40,  39, 207, 206, 332, 333, 837, 836
280,  39,   5,  49, 207, 333,  96, 251, 837
281,  59, 199, 208,  60, 233, 829, 838, 234
282, 199, 200, 209, 208, 829, 830, 839, 838
283, 200, 201, 210, 209, 830, 831, 840, 839
284, 201, 202, 211, 210, 831, 832, 841, 840
285, 202, 203, 212, 211, 832, 833, 842, 841
286, 203, 204, 213, 212, 833, 834, 843, 842
287, 204, 205, 214, 213, 834, 835, 844, 843
288, 205, 206, 215, 214, 835, 836, 845, 844
289, 206, 207, 216, 215, 836, 837, 846, 845
290, 207,  49,  48, 216, 837, 251, 252, 846
291,  60, 208,  50,   7, 234, 838, 406,  69
292, 208, 209,  51,  50, 838, 839, 407, 406
293, 209, 210,  52,  51, 839, 840, 408, 407
294, 210, 211,  53,  52, 840, 841, 409, 408
295, 211, 212,  54,  53, 841, 842, 410, 409
296, 212, 213,  55,  54, 842, 843, 411, 410
297, 213, 214,  56,  55, 843, 844, 412, 411
298, 214, 215,  57,  56, 844, 845, 413, 412
299, 215, 216,  58,  57, 845, 846, 414, 413
300, 216,  48,   6,  58, 846, 252,  79, 414
301,  158,  487,  847,  451,    9,   97,  415,  118
302,  487,  488,  848,  847,   97,   98,  416,  415
303,  488,  489,  849,  848,   98,   99,  417,  416
304,  489,  490,  850,  849,   99,  100,  418,  417
305,  490,  491,  851,  850,  100,  101,  419,  418
306,  491,  492,  852,  851,  101,  102,  420,  419
307,  492,  493,  853,  852,  102,  103,  421,  420
308,  493,  494,  854,  853,  103,  104,  422,  421
309,  494,  495,  855,  854,  104,  105,  423,  422
310,  495,  168,  469,  855,  105,   10,  106,  423
311,  451,  847,  856,  452,  118,  415,  424,  117
312,  847,  848,  857,  856,  415,  416,  425,  424
313,  848,  849,  858,  857,  416,  417,  426,  425
314,  849,  850,  859,  858,  417,  418,  427,  426
315,  850,  851,  860,  859,  418,  419,  428,  427
316,  851,  852,  861,  860,  419,  420,  429,  428
317,  852,  853,  862,  861,  420,  421,  430,  429
318,  853,  854,  863,  862,  421,  422,  431,  430
319,  854,  855,  864,  863,  422,  423,  432,  431
320,  855,  469,  470,  864,  423,  106,  107,  432
321,  452,  856,  568,  141,  117,  424,  116,   12
322,  856,  857,  569,  568,  424,  425,  115,  116
323,  857,  858,  570,  569,  425,  426,  114,  115
324,  858,  859,  571,  570,  426,  427,  113,  114
325,  859,  860,  572,  571,  427,  428,  112,  113
326,  860,  861,  573,  572,  428,  429,  111,  112
327,  861,  862,  574,  573,  429,  430,  110,  111
328,  862,  863,  575,  574,  430,  431,  109,  110
329,  863,  864,  576,  575,  431,  432,  108,  109
330,  864,  470,  167,  576,  432,  107,   11,  108
331,  157,  496,  865,  453,  158,  487,  847,  451
332,  496,  497,  866,  865,  487,  488,  848,  847
333,  497,  498,  867,  866,  488,  489,  849,  848
334,  498,  499,  868,  867,  489,  490,  850,  849
335,  499,  500,  869,  868,  490,  491,  851,  850
336,  500,  501,  870,  869,  491,  492,  852,  851
337,  501,  502,  871,  870,  492,  493,  853,  852
338,  502,  503,  872,  871,  493,  494,  854,  853
339,  503,  504,  873,  872,  494,  495,  855,  854
340,  504,  169,  471,  873,  495,  168,  469,  855
341,  453,  865,  874,  454,  451,  847,  856,  452
342,  865,  866,  875,  874,  847,  848,  857,  856
343,  866,  867,  876,  875,  848,  849,  858,  857
344,  867,  868,  877,  876,  849,  850,  859,  858
345,  868,  869,  878,  877,  850,  851,  860,  859
346,  869,  870,  879,  878,  851,  852,  861,  860
347,  870,  871,  880,  879,  852,  853,  862,  861
348,  871,  872,  881,  880,  853,  854,  863,  862
349,  872,  873,  882,  881,  854,  855,  864,  863
350,  873,  471,  472,  882,  855,  469,  470,  864
351,  454,  874,  577,  142,  452,  856,  568,  141
352,  874,  875,  578,  577,  856,  857,  569,  568
353,  875,  876,  579,  578,  857,  858,  570,  569
354,  876,  877,  580,  579,  858,  859,  571,  570
355,  877,  878,  581,  580,  859,  860,  572,  571
356,  878,  879,  582,  581,  860,  861,  573,  572
357,  879,  880,  583,  582,  861,  862,  574,  573
358,  880,  881,  584,  583,  862,  863,  575,  574
359,  881,  882,  585,  584,  863,  864,  576,  575
360,  882,  472,  166,  585,  864,  470,  167,  576
361,  156,  505,  883,  455,  157,  496,  865,  453
362,  505,  506,  884,  883,  496,  497,  866,  865
363,  506,  507,  885,  884,  497,  498,  867,  866
364,  507,  508,  886,  885,  498,  499,  868,  867
365,  508,  509,  887,  886,  499,  500,  869,  868
366,  509,  510,  888,  887,  500,  501,  870,  869
367,  510,  511,  889,  888,  501,  502,  871,  870
368,  511,  512,  890,  889,  502,  503,  872,  871
369,  512,  513,  891,  890,  503,  504,  873,  872
370,  513,  170,  473,  891,  504,  169,  471,  873
371,  455,  883,  892,  456,  453,  865,  874,  454
372,  883,  884,  893,  892,  865,  866,  875,  874
373,  884,  885,  894,  893,  866,  867,  876,  875
374,  885,  886,  895,  894,  867,  868,  877,  876
375,  886,  887,  896,  895,  868,  869,  878,  877
376,  887,  888,  897,  896,  869,  870,  879,  878
377,  888,  889,  898,  897,  870,  871,  880,  879
378,  889,  890,  899,  898,  871,  872,  881,  880
379,  890,  891,  900,  899,  872,  873,  882,  881
380,  891,  473,  474,  900,  873,  471,  472,  882
381,  456,  892,  586,  143,  454,  874,  577,  142
382,  892,  893,  587,  586,  874,  875,  578,  577
383,  893,  894,  588,  587,  875,  876,  579,  578
384,  894,  895,  589,  588,  876,  877,  580,  579
385,  895,  896,  590,  589,  877,  878,  581,  580
386,  896,  897,  591,  590,  878,  879,  582,  581
387,  897,  898,  592,  591,  879,  880,  583,  582
388,  898,  899,  593,  592,  880,  881,  584,  583
389,  899,  900,  594,  593,  881,  882,  585,  584
390,  900,  474,  165,  594,  882,  472,  166,  585
391,  155,  514,  901,  457,  156,  505,  883,  455
392,  514,  515,  902,  901,  505,  506,  884,  883
393,  515,  516,  903,  902,  506,  507,  885,  884
394,  516,  517,  904,  903,  507,  508,  886,  885
395,  517,  518,  905,  904,  508,  509,  887,  886
396,  518,  519,  906,  905,  509,  510,  888,  887
397,  519,  520,  907,  906,  510,  511,  889,  888
398,  520,  521,  908,  907,  511,  512,  890,  889
399,  521,  522,  909,  908,  512,  513,  891,  890
400,  522,  171,  475,  909,  513,  170,  473,  891
401,  457,  901,  910,  458,  455,  883,  892,  456
402,  901,  902,  911,  910,  883,  884,  893,  892
403,  902,  903,  912,  911,  884,  885,  894,  893
404,  903,  904,  913,  912,  885,  886,  895,  894
405,  904,  905,  914,  913,  886,  887,  896,  895
406,  905,  906,  915,  914,  887,  888,  897,  896
407,  906,  907,  916,  915,  888,  889,  898,  897
408,  907,  908,  917,  916,  889,  890,  899,  898
409,  908,  909,  918,  917,  890,  891,  900,  899
410,  909,  475,  476,  918,  891,  473,  474,  900
411,  458,  910,  595,  144,  456,  892,  586,  143
412,  910,  911,  596,  595,  892,  893,  587,  586
413,  911,  912,  597,  596,  893,  894,  588,  587
414,  912,  913,  598,  597,  894,  895,  589,  588
415,  913,  914,  599,  598,  895,  896,  590,  589
416,  914,  915,  600,  599,  896,  897,  591,  590
417,  915,  916,  601,  600,  897,  898,  592,  591
418,  916,  917,  602,  601,  898,  899,  593,  592
419,  917,  918,  603,  602,  899,  900,  594,  593
420,  918,  476,  164,  603,  900,  474,  165,  594
421,  154,  523,  919,  459,  155,  514,  901,  457
422,  523,  524,  920,  919,  514,  515,  902,  901
423,  524,  525,  921,  920,  515,  516,  903,  902
424,  525,  526,  922,  921,  516,  517,  904,  903
425,  526,  527,  923,  922,  517,  518,  905,  904
426,  527,  528,  924,  923,  518,  519,  906,  905
427,  528,  529,  925,  924,  519,  520,  907,  906
428,  529,  530,  926,  925,  520,  521,  908,  907
429,  530,  531,  927,  926,  521,  522,  909,  908
430,  531,  172,  477,  927,  522,  171,  475,  909
431,  459,  919,  928,  460,  457,  901,  910,  458
432,  919,  920,  929,  928,  901,  902,  911,  910
433,  920,  921,  930,  929,  902,  903,  912,  911
434,  921,  922,  931,  930,  903,  904,  913,  912
435,  922,  923,  932,  931,  904,  905,  914,  913
436,  923,  924,  933,  932,  905,  906,  915,  914
437,  924,  925,  934,  933,  906,  907,  916,  915
438,  925,  926,  935,  934,  907,  908,  917,  916
439,  926,  927,  936,  935,  908,  909,  918,  917
440,  927,  477,  478,  936,  909,  475,  476,  918
441,  460,  928,  604,  145,  458,  910,  595,  144
442,  928,  929,  605,  604,  910,  911,  596,  595
443,  929,  930,  606,  605,  911,  912,  597,  596
444,  930,  931,  607,  606,  912,  913,  598,  597
445,  931,  932,  608,  607,  913,  914,  599,  598
446,  932,  933,  609,  608,  914,  915,  600,  599
447,  933,  934,  610,  609,  915,  916,  601,  600
448,  934,  935,  611,  610,  916,  917,  602,  601
449,  935,  936,  612,  611,  917,  918,  603,  602
450,  936,  478,  163,  612,  918,  476,  164,  603
451,  153,  532,  937,  461,  154,  523,  919,  459
452,  532,  533,  938,  937,  523,  524,  920,  919
453,  533,  534,  939,  938,  524,  525,  921,  920
454,  534,  535,  940,  939,  525,  526,  922,  921
455,  535,  536,  941,  940,  526,  527,  923,  922
456,  536,  537,  942,  941,  527,  528,  924,  923
457,  537,  538,  943,  942,  528,  529,  925,  924
458,  538,  539,  944,  943,  529,  530,  926,  925
459,  539,  540,  945,  944,  530,  531,  927,  926
460,  540,  173,  479,  945,  531,  172,  477,  927
461,  461,  937,  946,  462,  459,  919,  928,  460
462,  937,  938,  947,  946,  919,  920,  929,  928
463,  938,  939,  948,  947,  920,  921,  930,  929
464,  939,  940,  949,  948,  921,  922,  931,  930
465,  940,  941,  950,  949,  922,  923,  932,  931
466,  941,  942,  951,  950,  923,  924,  933,  932
467,  942,  943,  952,  951,  924,  925,  934,  933
468,  943,  944,  953,  952,  925,  926,  935,  934
469,  944,  945,  954,  953,  926,  927,  936,  935
470,  945,  479,  480,  954,  927,  477,  478,  936
471,  462,  946,  613,  146,  460,  928,  604,  145
472,  946,  947,  614,  613,  928,  929,  605,  604
473,  947,  948,  615,  614,  929,  930,  606,  605
474,  948,  949,  616,  615,  930,  931,  607,  606
475,  949,  950,  617,  616,  931,  932,  608,  607
476,  950,  951,  618,  617,  932,  933,  609,  608
477,  951,  952,  619,  618,  933,  934,  610,  609
478,  952,  953,  620,  619,  934,  935,  611,  610
479,  953,  954,  621,  620,  935,  936,  612,  611
480,  954,  480,  162,  621,  936,  478,  163,  612
481,  152,  541,  955,  463,  153,  532,  937,  461
482,  541,  542,  956,  955,  532,  533,  938,  937
483,  542,  543,  957,  956,  533,  534,  939,  938
484,  543,  544,  958,  957,  534,  535,  940,  939
485,  544,  545,  959,  958,  535,  536,  941,  940
486,  545,  546,  960,  959,  536,  537,  942,  941
487,  546,  547,  961,  960,  537,  538,  943,  942
488,  547,  548,  962,  961,  538,  539,  944,  943
489,  548,  549,  963,  962,  539,  540,  945,  944
490,  549,  174,  481,  963,  540,  173,  479,  945
491,  463,  955,  964,  464,  461,  937,  946,  462
492,  955,  956,  965,  964,  937,  938,  947,  946
493,  956,  957,  966,  965,  938,  939,  948,  947
494,  957,  958,  967,  966,  939,  940,  949,  948
495,  958,  959,  968,  967,  940,  941,  950,  949
496,  959,  960,  969,  968,  941,  942,  951,  950
497,  960,  961,  970,  969,  942,  943,  952,  951
498,  961,  962,  971,  970,  943,  944,  953,  952
499,  962,  963,  972,  971,  944,  945,  954,  953
500,  963,  481,  482,  972,  945,  479,  480,  954
501,  464,  964,  622,  147,  462,  946,  613,  146
502,  964,  965,  623,  622,  946,  947,  614,  613
503,  965,  966,  624,  623,  947,  948,  615,  614
504,  966,  967,  625,  624,  948,  949,  616,  615
505,  967,  968,  626,  625,  949,  950,  617,  616
506,  968,  969,  627,  626,  950,  951,  618,  617
507,  969,  970,  628,  627,  951,  952,  619,  618
508,  970,  971,  629,  628,  952,  953,  620,  619
509,  971,  972,  630,  629,  953,  954,  621,  620
510,  972,  482,  161,  630,  954,  480,  162,  621
511,  151,  550,  973,  465,  152,  541,  955,  463
512,  550,  551,  974,  973,  541,  542,  956,  955
513,  551,  552,  975,  974,  542,  543,  957,  956
514,  552,  553,  976,  975,  543,  544,  958,  957
515,  553,  554,  977,  976,  544,  545,  959,  958
516,  554,  555,  978,  977,  545,  546,  960,  959
517,  555,  556,  979,  978,  546,  547,  961,  960
518,  556,  557,  980,  979,  547,  548,  962,  961
519,  557,  558,  981,  980,  548,  549,  963,  962
520,  558,  175,  483,  981,  549,  174,  481,  963
521,  465,  973,  982,  466,  463,  955,  964,  464
522,  973,  974,  983,  982,  955,  956,  965,  964
523,  974,  975,  984,  983,  956,  957,  966,  965
524,  975,  976,  985,  984,  957,  958,  967,  966
525,  976,  977,  986,  985,  958,  959,  968,  967
526,  977,  978,  987,  986,  959,  960,  969,  968
527,  978,  979,  988,  987,  960,  961,  970,  969
528,  979,  980,  989,  988,  961,  962,  971,  970
529,  980,  981,  990,  989,  962,  963,  972,  971
530,  981,  483,  484,  990,  963,  481,  482,  972
531,  466,  982,  631,  148,  464,  964,  622,  147
532,  982,  983,  632,  631,  964,  965,  623,  622
533,  983,  984,  633,  632,  965,  966,  624,  623
534,  984,  985,  634,  633,  966,  967,  625,  624
535,  985,  986,  635,  634,  967,  968,  626,  625
536,  986,  987,  636,  635,  968,  969,  627,  626
537,  987,  988,  637,  636,  969,  970,  628,  627
538,  988,  989,  638,  637,  970,  971,  629,  628
539,  989,  990,  639,  638,  971,  972,  630,  629
540,  990,  484,  160,  639,  972,  482,  161,  630
541,  150,  559,  991,  467,  151,  550,  973,  465
542,  559,  560,  992,  991,  550,  551,  974,  973
543,  560,  561,  993,  992,  551,  552,  975,  974
544,  561,  562,  994,  993,  552,  553,  976,  975
545,  562,  563,  995,  994,  553,  554,  977,  976
546,  563,  564,  996,  995,  554,  555,  978,  977
547,  564,  565,  997,  996,  555,  556,  979,  978
548,  565,  566,  998,  997,  556,  557,  980,  979
549,  566,  567,  999,  998,  557,  558,  981,  980
550,  567,  176,  485,  999,  558,  175,  483,  981
551,  467,  991, 1000,  468,  465,  973,  982,  466
552,  991,  992, 1001, 1000,  973,  974,  983,  982
553,  992,  993, 1002, 1001,  974,  975,  984,  983
554,  993,  994, 1003, 1002,  975,  976,  985,  984
555,  994,  995, 1004, 1003,  976,  977,  986,  985
556,  995,  996, 1005, 1004,  977,  978,  987,  986
557,  996,  997, 1006, 1005,  978,  979,  988,  987
558,  997,  998, 1007, 1006,  979,  980,  989,  988
559,  998,  999, 1008, 1007,  980,  981,  990,  989
560,  999,  485,  486, 1008,  981,  483,  484,  990
561,  468, 1000,  640,  149,  466,  982,  631,  148
562, 1000, 1001,  641,  640,  982,  983,  632,  631
563, 1001, 1002,  642,  641,  983,  984,  633,  632
564, 1002, 1003,  643,  642,  984,  985,  634,  633
565, 1003, 1004,  644,  643,  985,  986,  635,  634
566, 1004, 1005,  645,  644,  986,  987,  636,  635
567, 1005, 1006,  646,  645,  987,  988,  637,  636
568, 1006, 1007,  647,  646,  988,  989,  638,  637
569, 1007, 1008,  648,  647,  989,  990,  639,  638
570, 1008,  486,  159,  648,  990,  484,  160,  639
571,   16,  127,  433,  139,  150,  559,  991,  467
572,  127,  126,  434,  433,  559,  560,  992,  991
573,  126,  125,  435,  434,  560,  561,  993,  992
574,  125,  124,  436,  435,  561,  562,  994,  993
575,  124,  123,  437,  436,  562,  563,  995,  994
576,  123,  122,  438,  437,  563,  564,  996,  995
577,  122,  121,  439,  438,  564,  565,  997,  996
578,  121,  120,  440,  439,  565,  566,  998,  997
579,  120,  119,  441,  440,  566,  567,  999,  998
580,  119,   13,  129,  441,  567,  176,  485,  999
581,  139,  433,  442,  140,  467,  991, 1000,  468
582,  433,  434,  443,  442,  991,  992, 1001, 1000
583,  434,  435,  444,  443,  992,  993, 1002, 1001
584,  435,  436,  445,  444,  993,  994, 1003, 1002
585,  436,  437,  446,  445,  994,  995, 1004, 1003
586,  437,  438,  447,  446,  995,  996, 1005, 1004
587,  438,  439,  448,  447,  996,  997, 1006, 1005
588,  439,  440,  449,  448,  997,  998, 1007, 1006
589,  440,  441,  450,  449,  998,  999, 1008, 1007
590,  441,  129,  128,  450,  999,  485,  486, 1008
591,  140,  442,  130,   15,  468, 1000,  640,  149
592,  442,  443,  131,  130, 1000, 1001,  641,  640
593,  443,  444,  132,  131, 1001, 1002,  642,  641
594,  444,  445,  133,  132, 1002, 1003,  643,  642
595,  445,  446,  134,  133, 1003, 1004,  644,  643
596,  446,  447,  135,  134, 1004, 1005,  645,  644
597,  447,  448,  136,  135, 1005, 1006,  646,  645
598,  448,  449,  137,  136, 1006, 1007,  647,  646
599,  449,  450,  138,  137, 1007, 1008,  648,  647
600,  450,  128,   14,  138, 1008,  486,  159,  648
601,   88,  261, 1009,  667,    2,   25,  649,  178
602,  261,  260, 1010, 1009,   25,   24,  650,  649
603,  260,  259, 1011, 1010,   24,   23,  651,  650
604,  259,  258, 1012, 1011,   23,   22,  652,  651
605,  258,  257, 1013, 1012,   22,   21,  653,  652
606,  257,  256, 1014, 1013,   21,   20,  654,  653
607,  256,  255, 1015, 1014,   20,   19,  655,  654
608,  255,  254, 1016, 1015,   19,   18,  656,  655
609,  254,  253, 1017, 1016,   18,   17,  657,  656
610,  253,   78,  676, 1017,   17,    1,  177,  657
611,  667, 1009,  487,  158,  178,  649,   97,    9
612, 1009, 1010,  488,  487,  649,  650,   98,   97
613, 1010, 1011,  489,  488,  650,  651,   99,   98
614, 1011, 1012,  490,  489,  651,  652,  100,   99
615, 1012, 1013,  491,  490,  652,  653,  101,  100
616, 1013, 1014,  492,  491,  653,  654,  102,  101
617, 1014, 1015,  493,  492,  654,  655,  103,  102
618, 1015, 1016,  494,  493,  655,  656,  104,  103
619, 1016, 1017,  495,  494,  656,  657,  105,  104
620, 1017,  676,  168,  495,  657,  177,   10,  105
621,   89,  270, 1018,  668,   88,  261, 1009,  667
622,  270,  269, 1019, 1018,  261,  260, 1010, 1009
623,  269,  268, 1020, 1019,  260,  259, 1011, 1010
624,  268,  267, 1021, 1020,  259,  258, 1012, 1011
625,  267,  266, 1022, 1021,  258,  257, 1013, 1012
626,  266,  265, 1023, 1022,  257,  256, 1014, 1013
627,  265,  264, 1024, 1023,  256,  255, 1015, 1014
628,  264,  263, 1025, 1024,  255,  254, 1016, 1015
629,  263,  262, 1026, 1025,  254,  253, 1017, 1016
630,  262,   77,  677, 1026,  253,   78,  676, 1017
631,  668, 1018,  496,  157,  667, 1009,  487,  158
632, 1018, 1019,  497,  496, 1009, 1010,  488,  487
633, 1019, 1020,  498,  497, 1010, 1011,  489,  488
634, 1020, 1021,  499,  498, 1011, 1012,  490,  489
635, 1021, 1022,  500,  499, 1012, 1013,  491,  490
636, 1022, 1023,  501,  500, 1013, 1014,  492,  491
637, 1023, 1024,  502,  501, 1014, 1015,  493,  492
638, 1024, 1025,  503,  502, 1015, 1016,  494,  493
639, 1025, 1026,  504,  503, 1016, 1017,  495,  494
640, 1026,  677,  169,  504, 1017,  676,  168,  495
641,   90,  279, 1027,  669,   89,  270, 1018,  668
642,  279,  278, 1028, 1027,  270,  269, 1019, 1018
643,  278,  277, 1029, 1028,  269,  268, 1020, 1019
644,  277,  276, 1030, 1029,  268,  267, 1021, 1020
645,  276,  275, 1031, 1030,  267,  266, 1022, 1021
646,  275,  274, 1032, 1031,  266,  265, 1023, 1022
647,  274,  273, 1033, 1032,  265,  264, 1024, 1023
648,  273,  272, 1034, 1033,  264,  263, 1025, 1024
649,  272,  271, 1035, 1034,  263,  262, 1026, 1025
650,  271,   76,  678, 1035,  262,   77,  677, 1026
651,  669, 1027,  505,  156,  668, 1018,  496,  157
652, 1027, 1028,  506,  505, 1018, 1019,  497,  496
653, 1028, 1029,  507,  506, 1019, 1020,  498,  497
654, 1029, 1030,  508,  507, 1020, 1021,  499,  498
655, 1030, 1031,  509,  508, 1021, 1022,  500,  499
656, 1031, 1032,  510,  509, 1022, 1023,  501,  500
657, 1032, 1033,  511,  510, 1023, 1024,  502,  501
658, 1033, 1034,  512,  511, 1024, 1025,  503,  502
659, 1034, 1035,  513,  512, 1025, 1026,  504,  503
660, 1035,  678,  170,  513, 1026,  677,  169,  504
661,   91,  288, 1036,  670,   90,  279, 1027,  669
662,  288,  287, 1037, 1036,  279,  278, 1028, 1027
663,  287,  286, 1038, 1037,  278,  277, 1029, 1028
664,  286,  285, 1039, 1038,  277,  276, 1030, 1029
665,  285,  284, 1040, 1039,  276,  275, 1031, 1030
666,  284,  283, 1041, 1040,  275,  274, 1032, 1031
667,  283,  282, 1042, 1041,  274,  273, 1033, 1032
668,  282,  281, 1043, 1042,  273,  272, 1034, 1033
669,  281,  280, 1044, 1043,  272,  271, 1035, 1034
670,  280,   75,  679, 1044,  271,   76,  678, 1035
671,  670, 1036,  514,  155,  669, 1027,  505,  156
672, 1036, 1037,  515,  514, 1027, 1028,  506,  505
673, 1037, 1038,  516,  515, 1028, 1029,  507,  506
674, 1038, 1039,  517,  516, 1029, 1030,  508,  507
675, 1039, 1040,  518,  517, 1030, 1031,  509,  508
676, 1040, 1041,  519,  518, 1031, 1032,  510,  509
677, 1041, 1042,  520,  519, 1032, 1033,  511,  510
678, 1042, 1043,  521,  520, 1033, 1034,  512,  511
679, 1043, 1044,  522,  521, 1034, 1035,  513,  512
680, 1044,  679,  171,  522, 1035,  678,  170,  513
681,   92,  297, 1045,  671,   91,  288, 1036,  670
682,  297,  296, 1046, 1045,  288,  287, 1037, 1036
683,  296,  295, 1047, 1046,  287,  286, 1038, 1037
684,  295,  294, 1048, 1047,  286,  285, 1039, 1038
685,  294,  293, 1049, 1048,  285,  284, 1040, 1039
686,  293,  292, 1050, 1049,  284,  283, 1041, 1040
687,  292,  291, 1051, 1050,  283,  282, 1042, 1041
688,  291,  290, 1052, 1051,  282,  281, 1043, 1042
689,  290,  289, 1053, 1052,  281,  280, 1044, 1043
690,  289,   74,  680, 1053,  280,   75,  679, 1044
691,  671, 1045,  523,  154,  670, 1036,  514,  155
692, 1045, 1046,  524,  523, 1036, 1037,  515,  514
693, 1046, 1047,  525,  524, 1037, 1038,  516,  515
694, 1047, 1048,  526,  525, 1038, 1039,  517,  516
695, 1048, 1049,  527,  526, 1039, 1040,  518,  517
696, 1049, 1050,  528,  527, 1040, 1041,  519,  518
697, 1050, 1051,  529,  528, 1041, 1042,  520,  519
698, 1051, 1052,  530,  529, 1042, 1043,  521,  520
699, 1052, 1053,  531,  530, 1043, 1044,  522,  521
700, 1053,  680,  172,  531, 1044,  679,  171,  522
701,   93,  306, 1054,  672,   92,  297, 1045,  671
702,  306,  305, 1055, 1054,  297,  296, 1046, 1045
703,  305,  304, 1056, 1055,  296,  295, 1047, 1046
704,  304,  303, 1057, 1056,  295,  294, 1048, 1047
705,  303,  302, 1058, 1057,  294,  293, 1049, 1048
706,  302,  301, 1059, 1058,  293,  292, 1050, 1049
707,  301,  300, 1060, 1059,  292,  291, 1051, 1050
708,  300,  299, 1061, 1060,  291,  290, 1052, 1051
709,  299,  298, 1062, 1061,  290,  289, 1053, 1052
710,  298,   73,  681, 1062,  289,   74,  680, 1053
711,  672, 1054,  532,  153,  671, 1045,  523,  154
712, 1054, 1055,  533,  532, 1045, 1046,  524,  523
713, 1055, 1056,  534,  533, 1046, 1047,  525,  524
714, 1056, 1057,  535,  534, 1047, 1048,  526,  525
715, 1057, 1058,  536,  535, 1048, 1049,  527,  526
716, 1058, 1059,  537,  536, 1049, 1050,  528,  527
717, 1059, 1060,  538,  537, 1050, 1051,  529,  528
718, 1060, 1061,  539,  538, 1051, 1052,  530,  529
719, 1061, 1062,  540,  539, 1052, 1053,  531,  530
720, 1062,  681,  173,  540, 1053,  680,  172,  531
721,   94,  315, 1063,  673,   93,  306, 1054,  672
722,  315,  314, 1064, 1063,  306,  305, 1055, 1054
723,  314,  313, 1065, 1064,  305,  304, 1056, 1055
724,  313,  312, 1066, 1065,  304,  303, 1057, 1056
725,  312,  311, 1067, 1066,  303,  302, 1058, 1057
726,  311,  310, 1068, 1067,  302,  301, 1059, 1058
727,  310,  309, 1069, 1068,  301,  300, 1060, 1059
728,  309,  308, 1070, 1069,  300,  299, 1061, 1060
729,  308,  307, 1071, 1070,  299,  298, 1062, 1061
730,  307,   72,  682, 1071,  298,   73,  681, 1062
731,  673, 1063,  541,  152,  672, 1054,  532,  153
732, 1063, 1064,  542,  541, 1054, 1055,  533,  532
733, 1064, 1065,  543,  542, 1055, 1056,  534,  533
734, 1065, 1066,  544,  543, 1056, 1057,  535,  534
735, 1066, 1067,  545,  544, 1057, 1058,  536,  535
736, 1067, 1068,  546,  545, 1058, 1059,  537,  536
737, 1068, 1069,  547,  546, 1059, 1060,  538,  537
738, 1069, 1070,  548,  547, 1060, 1061,  539,  538
739, 1070, 1071,  549,  548, 1061, 1062,  540,  539
740, 1071,  682,  174,  549, 1062,  681,  173,  540
741,   95,  324, 1072,  674,   94,  315, 1063,  673
742,  324,  323, 1073, 1072,  315,  314, 1064, 1063
743,  323,  322, 1074, 1073,  314,  313, 1065, 1064
744,  322,  321, 1075, 1074,  313,  312, 1066, 1065
745,  321,  320, 1076, 1075,  312,  311, 1067, 1066
746,  320,  319, 1077, 1076,  311,  310, 1068, 1067
747,  319,  318, 1078, 1077,  310,  309, 1069, 1068
748,  318,  317, 1079, 1078,  309,  308, 1070, 1069
749,  317,  316, 1080, 1079,  308,  307, 1071, 1070
750,  316,   71,  683, 1080,  307,   72,  682, 1071
751,  674, 1072,  550,  151,  673, 1063,  541,  152
752, 1072, 1073,  551,  550, 1063, 1064,  542,  541
753, 1073, 1074,  552,  551, 1064, 1065,  543,  542
754, 1074, 1075,  553,  552, 1065, 1066,  544,  543
755, 1075, 1076,  554,  553, 1066, 1067,  545,  544
756, 1076, 1077,  555,  554, 1067, 1068,  546,  545
757, 1077, 1078,  556,  555, 1068, 1069,  547,  546
758, 1078, 1079,  557,  556, 1069, 1070,  548,  547
759, 1079, 1080,  558,  557, 1070, 1071,  549,  548
760, 1080,  683,  175,  558, 1071,  682,  174,  549
761,   96,  333, 1081,  675,   95,  324, 1072,  674
762,  333,  332, 1082, 1081,  324,  323, 1073, 1072
763,  332,  331, 1083, 1082,  323,  322, 1074, 1073
764,  331,  330, 1084, 1083,  322,  321, 1075, 1074
765,  330,  329, 1085, 1084,  321,  320, 1076, 1075
766,  329,  328, 1086, 1085,  320,  319, 1077, 1076
767,  328,  327, 1087, 1086,  319,  318, 1078, 1077
768,  327,  326, 1088, 1087,  318,  317, 1079, 1078
769,  326,  325, 1089, 1088,  317,  316, 1080, 1079
770,  325,   70,  684, 1089,  316,   71,  683, 1080
771,  675, 1081,  559,  150,  674, 1072,  550,  151
772, 1081, 1082,  560,  559, 1072, 1073,  551,  550
773, 1082, 1083,  561,  560, 1073, 1074,  552,  551
774, 1083, 1084,  562,  561, 1074, 1075,  553,  552
775, 1084, 1085,  563,  562, 1075, 1076,  554,  553
776, 1085, 1086,  564,  563, 1076, 1077,  555,  554
777, 1086, 1087,  565,  564, 1077, 1078,  556,  555
778, 1087, 1088,  566,  565, 1078, 1079,  557,  556
779, 1088, 1089,  567,  566, 1079, 1080,  558,  557
780, 1089,  684,  176,  567, 1080,  683,  175,  558
781,    5,   39,  658,  180,   96,  333, 1081,  675
782,   39,   40,  659,  658,  333,  332, 1082, 1081
783,   40,   41,  660,  659,  332,  331, 1083, 1082
784,   41,   42,  661,  660,  331,  330, 1084, 1083
785,   42,   43,  662,  661,  330,  329, 1085, 1084
786,   43,   44,  663,  662,  329,  328, 1086, 1085
787,   44,   45,  664,  663,  328,  327, 1087, 1086
788,   45,   46,  665,  664,  327,  326, 1088, 1087
789,   46,   47,  666,  665,  326,  325, 1089, 1088
790,   47,    8,  179,  666,  325,   70,  684, 1089
791,  180,  658,  127,   16,  675, 1081,  559,  150
792,  658,  659,  126,  127, 1081, 1082,  560,  559
793,  659,  660,  125,  126, 1082, 1083,  561,  560
794,  660,  661,  124,  125, 1083, 1084,  562,  561
795,  661,  662,  123,  124, 1084, 1085,  563,  562
796,  662,  663,  122,  123, 1085, 1086,  564,  563
797,  663,  664,  121,  122, 1086, 1087,  565,  564
798,  664,  665,  120,  121, 1087, 1088,  566,  565
799,  665,  666,  119,  120, 1088, 1089,  567,  566
800,  666,  179,   13,  119, 1089,  684,  176,  567
*Nset, nset=LOWER_ACTIVE
    9,   10,   11,   12,   13,   14,   15,   16,   97,   98,   99,  100,  101,  102,  103,  104
  105,  106,  107,  108,  109,  110,  111,  112,  113,  114,  115,  116,  117,  118,  119,  120
  121,  122,  123,  124,  125,  126,  127,  128,  129,  130,  131,  132,  133,  134,  135,  136
  137,  138,  139,  140,  141,  142,  143,  144,  145,  146,  147,  148,  149,  150,  151,  152
  153,  154,  155,  156,  157,  158,  159,  160,  161,  162,  163,  164,  165,  166,  167,  168
  169,  170,  171,  172,  173,  174,  175,  176,  415,  416,  417,  418,  419,  420,  421,  422
  423,  424,  425,  426,  427,  428,  429,  430,  431,  432,  433,  434,  435,  436,  437,  438
  439,  440,  441,  442,  443,  444,  445,  446,  447,  448,  449,  450,  451,  452,  453,  454
  455,  456,  457,  458,  459,  460,  461,  462,  463,  464,  465,  466,  467,  468,  469,  470
  471,  472,  473,  474,  475,  476,  477,  478,  479,  480,  481,  482,  483,  484,  485,  486
  487,  488,  489,  490,  491,  492,  493,  494,  495,  496,  497,  498,  499,  500,  501,  502
  503,  504,  505,  506,  507,  508,  509,  510,  511,  512,  513,  514,  515,  516,  517,  518
  519,  520,  521,  522,  523,  524,  525,  526,  527,  528,  529,  530,  531,  532,  533,  534
  535,  536,  537,  538,  539,  540,  541,  542,  543,  544,  545,  546,  547,  548,  549,  550
  551,  552,  553,  554,  555,  556,  557,  558,  559,  560,  561,  562,  563,  564,  565,  566
  567,  568,  569,  570,  571,  572,  573,  574,  575,  576,  577,  578,  579,  580,  581,  582
  583,  584,  585,  586,  587,  588,  589,  590,  591,  592,  593,  594,  595,  596,  597,  598
  599,  600,  601,  602,  603,  604,  605,  606,  607,  608,  609,  610,  611,  612,  613,  614
  615,  616,  617,  618,  619,  620,  621,  622,  623,  624,  625,  626,  627,  628,  629,  630
  631,  632,  633,  634,  635,  636,  637,  638,  639,  640,  641,  642,  643,  644,  645,  646
  647,  648,  847,  848,  849,  850,  851,  852,  853,  854,  855,  856,  857,  858,  859,  860
  861,  862,  863,  864,  865,  866,  867,  868,  869,  870,  871,  872,  873,  874,  875,  876
  877,  878,  879,  880,  881,  882,  883,  884,  885,  886,  887,  888,  889,  890,  891,  892
  893,  894,  895,  896,  897,  898,  899,  900,  901,  902,  903,  904,  905,  906,  907,  908
  909,  910,  911,  912,  913,  914,  915,  916,  917,  918,  919,  920,  921,  922,  923,  924
  925,  926,  927,  928,  929,  930,  931,  932,  933,  934,  935,  936,  937,  938,  939,  940
  941,  942,  943,  944,  945,  946,  947,  948,  949,  950,  951,  952,  953,  954,  955,  956
  957,  958,  959,  960,  961,  962,  963,  964,  965,  966,  967,  968,  969,  970,  971,  972
  973,  974,  975,  976,  977,  978,  979,  980,  981,  982,  983,  984,  985,  986,  987,  988
  989,  990,  991,  992,  993,  994,  995,  996,  997,  998,  999, 1000, 1001, 1002, 1003, 1004
 1005, 1006, 1007, 1008
*Elset, elset=LOWER_ACTIVE, generate
 301,  600,    1
*Nset, nset=AL_COLLECTOR
    1,    2,    5,    8,    9,   10,   13,   16,   17,   18,   19,   20,   21,   22,   23,   24
   25,   39,   40,   41,   42,   43,   44,   45,   46,   47,   70,   71,   72,   73,   74,   75
   76,   77,   78,   88,   89,   90,   91,   92,   93,   94,   95,   96,   97,   98,   99,  100
  101,  102,  103,  104,  105,  119,  120,  121,  122,  123,  124,  125,  126,  127,  150,  151
  152,  153,  154,  155,  156,  157,  158,  168,  169,  170,  171,  172,  173,  174,  175,  176
  177,  178,  179,  180,  253,  254,  255,  256,  257,  258,  259,  260,  261,  262,  263,  264
  265,  266,  267,  268,  269,  270,  271,  272,  273,  274,  275,  276,  277,  278,  279,  280
  281,  282,  283,  284,  285,  286,  287,  288,  289,  290,  291,  292,  293,  294,  295,  296
  297,  298,  299,  300,  301,  302,  303,  304,  305,  306,  307,  308,  309,  310,  311,  312
  313,  314,  315,  316,  317,  318,  319,  320,  321,  322,  323,  324,  325,  326,  327,  328
  329,  330,  331,  332,  333,  487,  488,  489,  490,  491,  492,  493,  494,  495,  496,  497
  498,  499,  500,  501,  502,  503,  504,  505,  506,  507,  508,  509,  510,  511,  512,  513
  514,  515,  516,  517,  518,  519,  520,  521,  522,  523,  524,  525,  526,  527,  528,  529
  530,  531,  532,  533,  534,  535,  536,  537,  538,  539,  540,  541,  542,  543,  544,  545
  546,  547,  548,  549,  550,  551,  552,  553,  554,  555,  556,  557,  558,  559,  560,  561
  562,  563,  564,  565,  566,  567,  649,  650,  651,  652,  653,  654,  655,  656,  657,  658
  659,  660,  661,  662,  663,  664,  665,  666,  667,  668,  669,  670,  671,  672,  673,  674
  675,  676,  677,  678,  679,  680,  681,  682,  683,  684, 1009, 1010, 1011, 1012, 1013, 1014
 1015, 1016, 1017, 1018, 1019, 1020, 1021, 1022, 1023, 1024, 1025, 1026, 1027, 1028, 1029, 1030
 1031, 1032, 1033, 1034, 1035, 1036, 1037, 1038, 1039, 1040, 1041, 1042, 1043, 1044, 1045, 1046
 1047, 1048, 1049, 1050, 1051, 1052, 1053, 1054, 1055, 1056, 1057, 1058, 1059, 1060, 1061, 1062
 1063, 1064, 1065, 1066, 1067, 1068, 1069, 1070, 1071, 1072, 1073, 1074, 1075, 1076, 1077, 1078
 1079, 1080, 1081, 1082, 1083, 1084, 1085, 1086, 1087, 1088, 1089
*Elset, elset=AL_COLLECTOR, generate
 601,  800,    1
*Nset, nset=UPPER_ACTIVE
   1,   2,   3,   4,   5,   6,   7,   8,  17,  18,  19,  20,  21,  22,  23,  24
  25,  26,  27,  28,  29,  30,  31,  32,  33,  34,  35,  36,  37,  38,  39,  40
  41,  42,  43,  44,  45,  46,  47,  48,  49,  50,  51,  52,  53,  54,  55,  56
  57,  58,  59,  60,  61,  62,  63,  64,  65,  66,  67,  68,  69,  70,  71,  72
  73,  74,  75,  76,  77,  78,  79,  80,  81,  82,  83,  84,  85,  86,  87,  88
  89,  90,  91,  92,  93,  94,  95,  96, 181, 182, 183, 184, 185, 186, 187, 188
 189, 190, 191, 192, 193, 194, 195, 196, 197, 198, 199, 200, 201, 202, 203, 204
 205, 206, 207, 208, 209, 210, 211, 212, 213, 214, 215, 216, 217, 218, 219, 220
 221, 222, 223, 224, 225, 226, 227, 228, 229, 230, 231, 232, 233, 234, 235, 236
 237, 238, 239, 240, 241, 242, 243, 244, 245, 246, 247, 248, 249, 250, 251, 252
 253, 254, 255, 256, 257, 258, 259, 260, 261, 262, 263, 264, 265, 266, 267, 268
 269, 270, 271, 272, 273, 274, 275, 276, 277, 278, 279, 280, 281, 282, 283, 284
 285, 286, 287, 288, 289, 290, 291, 292, 293, 294, 295, 296, 297, 298, 299, 300
 301, 302, 303, 304, 305, 306, 307, 308, 309, 310, 311, 312, 313, 314, 315, 316
 317, 318, 319, 320, 321, 322, 323, 324, 325, 326, 327, 328, 329, 330, 331, 332
 333, 334, 335, 336, 337, 338, 339, 340, 341, 342, 343, 344, 345, 346, 347, 348
 349, 350, 351, 352, 353, 354, 355, 356, 357, 358, 359, 360, 361, 362, 363, 364
 365, 366, 367, 368, 369, 370, 371, 372, 373, 374, 375, 376, 377, 378, 379, 380
 381, 382, 383, 384, 385, 386, 387, 388, 389, 390, 391, 392, 393, 394, 395, 396
 397, 398, 399, 400, 401, 402, 403, 404, 405, 406, 407, 408, 409, 410, 411, 412
 413, 414, 685, 686, 687, 688, 689, 690, 691, 692, 693, 694, 695, 696, 697, 698
 699, 700, 701, 702, 703, 704, 705, 706, 707, 708, 709, 710, 711, 712, 713, 714
 715, 716, 717, 718, 719, 720, 721, 722, 723, 724, 725, 726, 727, 728, 729, 730
 731, 732, 733, 734, 735, 736, 737, 738, 739, 740, 741, 742, 743, 744, 745, 746
 747, 748, 749, 750, 751, 752, 753, 754, 755, 756, 757, 758, 759, 760, 761, 762
 763, 764, 765, 766, 767, 768, 769, 770, 771, 772, 773, 774, 775, 776, 777, 778
 779, 780, 781, 782, 783, 784, 785, 786, 787, 788, 789, 790, 791, 792, 793, 794
 795, 796, 797, 798, 799, 800, 801, 802, 803, 804, 805, 806, 807, 808, 809, 810
 811, 812, 813, 814, 815, 816, 817, 818, 819, 820, 821, 822, 823, 824, 825, 826
 827, 828, 829, 830, 831, 832, 833, 834, 835, 836, 837, 838, 839, 840, 841, 842
 843, 844, 845, 846
*Elset, elset=UPPER_ACTIVE, generate
   1,  300,    1
*Nset, nset=BOTTOM_SURFACE_NODES
  11,  12,  14,  15, 108, 109, 110, 111, 112, 113, 114, 115, 116, 130, 131, 132
 133, 134, 135, 136, 137, 138, 141, 142, 143, 144, 145, 146, 147, 148, 149, 159
 160, 161, 162, 163, 164, 165, 166, 167, 568, 569, 570, 571, 572, 573, 574, 575
 576, 577, 578, 579, 580, 581, 582, 583, 584, 585, 586, 587, 588, 589, 590, 591
 592, 593, 594, 595, 596, 597, 598, 599, 600, 601, 602, 603, 604, 605, 606, 607
 608, 609, 610, 611, 612, 613, 614, 615, 616, 617, 618, 619, 620, 621, 622, 623
 624, 625, 626, 627, 628, 629, 630, 631, 632, 633, 634, 635, 636, 637, 638, 639
 640, 641, 642, 643, 644, 645, 646, 647, 648
*Nset, nset=LOWER_ACTIVE_AL_INTERFACE_NODES
   9,  10,  13,  16,  97,  98,  99, 100, 101, 102, 103, 104, 105, 119, 120, 121
 122, 123, 124, 125, 126, 127, 150, 151, 152, 153, 154, 155, 156, 157, 158, 168
 169, 170, 171, 172, 173, 174, 175, 176, 487, 488, 489, 490, 491, 492, 493, 494
 495, 496, 497, 498, 499, 500, 501, 502, 503, 504, 505, 506, 507, 508, 509, 510
 511, 512, 513, 514, 515, 516, 517, 518, 519, 520, 521, 522, 523, 524, 525, 526
 527, 528, 529, 530, 531, 532, 533, 534, 535, 536, 537, 538, 539, 540, 541, 542
 543, 544, 545, 546, 547, 548, 549, 550, 551, 552, 553, 554, 555, 556, 557, 558
 559, 560, 561, 562, 563, 564, 565, 566, 567
*Nset, nset=AL_UPPER_ACTIVE_INTERFACE_NODES
   1,   2,   5,   8,  17,  18,  19,  20,  21,  22,  23,  24,  25,  39,  40,  41
  42,  43,  44,  45,  46,  47,  70,  71,  72,  73,  74,  75,  76,  77,  78,  88
  89,  90,  91,  92,  93,  94,  95,  96, 253, 254, 255, 256, 257, 258, 259, 260
 261, 262, 263, 264, 265, 266, 267, 268, 269, 270, 271, 272, 273, 274, 275, 276
 277, 278, 279, 280, 281, 282, 283, 284, 285, 286, 287, 288, 289, 290, 291, 292
 293, 294, 295, 296, 297, 298, 299, 300, 301, 302, 303, 304, 305, 306, 307, 308
 309, 310, 311, 312, 313, 314, 315, 316, 317, 318, 319, 320, 321, 322, 323, 324
 325, 326, 327, 328, 329, 330, 331, 332, 333
*Nset, nset=TOP_SURFACE_NODES
   3,   4,   6,   7,  28,  29,  30,  31,  32,  33,  34,  35,  36,  50,  51,  52
  53,  54,  55,  56,  57,  58,  61,  62,  63,  64,  65,  66,  67,  68,  69,  79
  80,  81,  82,  83,  84,  85,  86,  87, 334, 335, 336, 337, 338, 339, 340, 341
 342, 343, 344, 345, 346, 347, 348, 349, 350, 351, 352, 353, 354, 355, 356, 357
 358, 359, 360, 361, 362, 363, 364, 365, 366, 367, 368, 369, 370, 371, 372, 373
 374, 375, 376, 377, 378, 379, 380, 381, 382, 383, 384, 385, 386, 387, 388, 389
 390, 391, 392, 393, 394, 395, 396, 397, 398, 399, 400, 401, 402, 403, 404, 405
 406, 407, 408, 409, 410, 411, 412, 413, 414
*Nset, nset=DRIFT_CORNER_A
 15,
*Nset, nset=DRIFT_CORNER_B
 12,
*Elset, elset=_ELECTRODE_TOP_S5, internal
  21,  22,  23,  24,  25,  26,  27,  28,  29,  30,  51,  52,  53,  54,  55,  56
  57,  58,  59,  60,  81,  82,  83,  84,  85,  86,  87,  88,  89,  90, 111, 112
 113, 114, 115, 116, 117, 118, 119, 120, 141, 142, 143, 144, 145, 146, 147, 148
 149, 150, 171, 172, 173, 174, 175, 176, 177, 178, 179, 180, 201, 202, 203, 204
 205, 206, 207, 208, 209, 210, 231, 232, 233, 234, 235, 236, 237, 238, 239, 240
 261, 262, 263, 264, 265, 266, 267, 268, 269, 270, 291, 292, 293, 294, 295, 296
 297, 298, 299, 300
*Surface, type=ELEMENT, name=ELECTRODE_TOP
_ELECTRODE_TOP_S5, S5
*Elset, elset=_ELECTRODE_BOTTOM_S5, internal
 321, 322, 323, 324, 325, 326, 327, 328, 329, 330, 351, 352, 353, 354, 355, 356
 357, 358, 359, 360, 381, 382, 383, 384, 385, 386, 387, 388, 389, 390, 411, 412
 413, 414, 415, 416, 417, 418, 419, 420, 441, 442, 443, 444, 445, 446, 447, 448
 449, 450, 471, 472, 473, 474, 475, 476, 477, 478, 479, 480, 501, 502, 503, 504
 505, 506, 507, 508, 509, 510, 531, 532, 533, 534, 535, 536, 537, 538, 539, 540
 561, 562, 563, 564, 565, 566, 567, 568, 569, 570, 591, 592, 593, 594, 595, 596
 597, 598, 599, 600
*Surface, type=ELEMENT, name=ELECTRODE_BOTTOM
_ELECTRODE_BOTTOM_S5, S5
** Section: ActiveLayerSection
*Solid Section, elset=UPPER_ACTIVE, material=Active_Layer
,
** Section: ActiveLayerSection
*Solid Section, elset=LOWER_ACTIVE, material=Active_Layer
,
** Section: AlCollectorSection
*Solid Section, elset=AL_COLLECTOR, material=Al_Current_Collector
,
*End Part
**  
*Part, name=TopRigidPlate
*End Part
**  
**
** ASSEMBLY
**
*Assembly, name=Assembly
**  
*Instance, name=LAYERED_ELECTRODE-1, part=LayeredElectrode
          0.,           0.,         -0.5
*End Instance
**  
*Instance, name=BOTTOM_PLATE-1, part=BottomRigidPlate
          0.,      -0.0825,         -0.6
*Node
      1,           0.,           0.,  0.600000024
*Nset, nset=BOTTOM_PLATE-1-RefPt_, internal
1, 
*Surface, type=CYLINDER, name=PLATE_SURFACE
START,         -0.6,           0.
 LINE,          0.6,           0.
*End Instance
**  
*Instance, name=TOP_PLATE-1, part=TopRigidPlate
          0.,       0.0825,         -0.6
*Node
      1,           0.,           0.,  0.600000024
*Nset, nset=TOP_PLATE-1-RefPt_, internal
1, 
*Surface, type=CYLINDER, name=PLATE_SURFACE
START,          0.6,           0.
 LINE,         -0.6,           0.
*End Instance
**  
*Nset, nset=BOTTOM_RP, instance=BOTTOM_PLATE-1
 1,
*Nset, nset=TOP_RP, instance=TOP_PLATE-1
 1,
*Nset, nset=_PickedSet10, internal, instance=BOTTOM_PLATE-1
 1,
*Nset, nset=_PickedSet11, internal, instance=TOP_PLATE-1
 1,
** Constraint: RigidBody-Bottom
*Rigid Body, ref node=_PickedSet10, analytical surface=BOTTOM_PLATE-1.PLATE_SURFACE
** Constraint: RigidBody-Top
*Rigid Body, ref node=_PickedSet11, analytical surface=TOP_PLATE-1.PLATE_SURFACE
*End Assembly
** 
** MATERIALS
** 
*Material, name=Active_Layer
*Elastic
609., 0.1
*Plastic
 10.,   0.
 20.,  0.1
 35.,  0.2
 62.,  0.3
 92.,  0.4
145.,  0.5
230., 0.63
*Material, name=Al_Current_Collector
*Elastic
72000., 0.33
** 
** INTERACTION PROPERTIES
** 
*Surface Interaction, name=PlateElectrodeContact
1.,
*Friction
0.,
*Surface Behavior, pressure-overclosure=HARD
** 
** BOUNDARY CONDITIONS
** 
** Name: BC-BottomPlate-Fixed Type: 对称/反对称/完全固定
*Boundary
BOTTOM_RP, ENCASTRE
** Name: BC-Drift-A Type: 位移/转角
*Boundary
LAYERED_ELECTRODE-1.DRIFT_CORNER_A, 1, 1
LAYERED_ELECTRODE-1.DRIFT_CORNER_A, 3, 3
** Name: BC-Drift-B Type: 位移/转角
*Boundary
LAYERED_ELECTRODE-1.DRIFT_CORNER_B, 3, 3
** Name: BC-TopPlate Type: 位移/转角
*Boundary
TOP_RP, 1, 1
TOP_RP, 2, 2
TOP_RP, 3, 3
TOP_RP, 4, 4
TOP_RP, 5, 5
TOP_RP, 6, 6
** 
** INTERACTIONS
** 
** Interaction: Contact-Bottom
*Contact Pair, interaction=PlateElectrodeContact, type=SURFACE TO SURFACE
LAYERED_ELECTRODE-1.ELECTRODE_BOTTOM, BOTTOM_PLATE-1.PLATE_SURFACE
** Interaction: Contact-Top
*Contact Pair, interaction=PlateElectrodeContact, type=SURFACE TO SURFACE
LAYERED_ELECTRODE-1.ELECTRODE_TOP, TOP_PLATE-1.PLATE_SURFACE
** ----------------------------------------------------------------
** 
** STEP: Step-1 Compression
** 
*Step, name="Step-1 Compression", nlgeom=YES, inc=1000
*Static, stabilize=0.0002, allsdtol=0, continue=NO
0.02, 1., 1e-08, 0.05
** 
** BOUNDARY CONDITIONS
** 
** Name: BC-TopPlate Type: 位移/转角
*Boundary
TOP_RP, 2, 2, -0.015
** 
** OUTPUT REQUESTS
** 
*Restart, write, frequency=0
** 
** FIELD OUTPUT: F-LayeredElectrode
** 
*Output, field
*Node Output
U, 
*Element Output, directions=YES
EVOL, LE, PE, PEEQ, S
** 
** HISTORY OUTPUT: H-Energy
** 
*Output, history
*Energy Output
ALLIE, ALLPD, ALLSD
** 
** HISTORY OUTPUT: H-TopRP
** 
*Node Output, nset=TOP_RP
RF2, U2
*End Step
** ----------------------------------------------------------------
** 
** STEP: Step-2 Unload
** 
*Step, name="Step-2 Unload", nlgeom=YES, inc=1000
*Static, stabilize=0.0002, allsdtol=0, continue=NO
0.02, 1., 1e-08, 0.05
** 
** BOUNDARY CONDITIONS
** 
** Name: BC-TopPlate Type: 位移/转角
*Boundary
TOP_RP, 2, 2
** 
** OUTPUT REQUESTS
** 
*Restart, write, frequency=0
** 
** FIELD OUTPUT: F-LayeredElectrode
** 
*Output, field
*Node Output
U, 
*Element Output, directions=YES
EVOL, LE, PE, PEEQ, S
** 
** HISTORY OUTPUT: H-Energy
** 
*Output, history
*Energy Output
ALLIE, ALLPD, ALLSD
** 
** HISTORY OUTPUT: H-TopRP
** 
*Node Output, nset=TOP_RP
RF2, U2
*End Step
