*Heading
 3D explicit staged clamp-then-roll model for a self-supporting coating film
** Job name: RP3D_Self_DPC_S030_50mm_Roll10mm_dt5e6_CoarseRoller_V2p2 Model name: RP3D_Self_DPC_S030_50mm_Roll10mm_dt5e6_CoarseRoller_V2p2
** Generated by: Abaqus/CAE 2025
*Preprint, echo=NO, model=NO, history=NO, contact=NO
**
** PARTS
**
*Part, name=ActiveLayer
*Node
      1,          -1.,  0.150000006,         100.
      2,          -1.,  0.150000006,           0.
      3,          -5.,  0.150000006,           0.
      4,          -5.,  0.150000006,         100.
      5,          -1.,           0.,           0.
      6,          -5.,           0.,           0.
      7,          -5.,           0.,         100.
      8,          -1.,           0.,         100.
      9,         -15.,  0.150000006,           0.
     10,         -15.,  0.150000006,         100.
     11,         -15.,           0.,           0.
     12,         -15.,           0.,         100.
     13,         -35.,           0.,         100.
     14,         -35.,           0.,           0.
     15,         -35.,  0.150000006,         100.
     16,         -35.,  0.150000006,           0.
     17,         -50.,           0.,         100.
     18,         -50.,           0.,           0.
     19,         -50.,  0.150000006,         100.
     20,         -50.,  0.150000006,           0.
     21,           0.,  0.150000006,         100.
     22,           0.,           0.,         100.
     23,           0.,           0.,           0.
     24,           0.,  0.150000006,           0.
     25,          -1.,  0.150000006,          95.
     26,          -1.,  0.150000006,          90.
     27,          -1.,  0.150000006,          85.
     28,          -1.,  0.150000006,          80.
     29,          -1.,  0.150000006,          75.
     30,          -1.,  0.150000006,          70.
     31,          -1.,  0.150000006,          65.
     32,          -1.,  0.150000006,          60.
     33,          -1.,  0.150000006,          55.
     34,          -1.,  0.150000006,          50.
     35,          -1.,  0.150000006,          45.
     36,          -1.,  0.150000006,          40.
     37,          -1.,  0.150000006,          35.
     38,          -1.,  0.150000006,          30.
     39,          -1.,  0.150000006,          25.
     40,          -1.,  0.150000006,          20.
     41,          -1.,  0.150000006,          15.
     42,          -1.,  0.150000006,          10.
     43,          -1.,  0.150000006,           5.
     44,  -1.79999995,  0.150000006,           0.
     45,   -2.5999999,  0.150000006,           0.
     46,   -3.4000001,  0.150000006,           0.
     47,  -4.19999981,  0.150000006,           0.
     48,          -5.,  0.150000006,           5.
     49,          -5.,  0.150000006,          10.
     50,          -5.,  0.150000006,          15.
     51,          -5.,  0.150000006,          20.
     52,          -5.,  0.150000006,          25.
     53,          -5.,  0.150000006,          30.
     54,          -5.,  0.150000006,          35.
     55,          -5.,  0.150000006,          40.
     56,          -5.,  0.150000006,          45.
     57,          -5.,  0.150000006,          50.
     58,          -5.,  0.150000006,          55.
     59,          -5.,  0.150000006,          60.
     60,          -5.,  0.150000006,          65.
     61,          -5.,  0.150000006,          70.
     62,          -5.,  0.150000006,          75.
     63,          -5.,  0.150000006,          80.
     64,          -5.,  0.150000006,          85.
     65,          -5.,  0.150000006,          90.
     66,          -5.,  0.150000006,          95.
     67,  -4.19999981,  0.150000006,         100.
     68,   -3.4000001,  0.150000006,         100.
     69,   -2.5999999,  0.150000006,         100.
     70,  -1.79999995,  0.150000006,         100.
     71,          -1.,           0.,           5.
     72,          -1.,           0.,          10.
     73,          -1.,           0.,          15.
     74,          -1.,           0.,          20.
     75,          -1.,           0.,          25.
     76,          -1.,           0.,          30.
     77,          -1.,           0.,          35.
     78,          -1.,           0.,          40.
     79,          -1.,           0.,          45.
     80,          -1.,           0.,          50.
     81,          -1.,           0.,          55.
     82,          -1.,           0.,          60.
     83,          -1.,           0.,          65.
     84,          -1.,           0.,          70.
     85,          -1.,           0.,          75.
     86,          -1.,           0.,          80.
     87,          -1.,           0.,          85.
     88,          -1.,           0.,          90.
     89,          -1.,           0.,          95.
     90,  -4.19999981,           0.,           0.
     91,   -3.4000001,           0.,           0.
     92,   -2.5999999,           0.,           0.
     93,  -1.79999995,           0.,           0.
     94,          -5.,           0.,          95.
     95,          -5.,           0.,          90.
     96,          -5.,           0.,          85.
     97,          -5.,           0.,          80.
     98,          -5.,           0.,          75.
     99,          -5.,           0.,          70.
    100,          -5.,           0.,          65.
    101,          -5.,           0.,          60.
    102,          -5.,           0.,          55.
    103,          -5.,           0.,          50.
    104,          -5.,           0.,          45.
    105,          -5.,           0.,          40.
    106,          -5.,           0.,          35.
    107,          -5.,           0.,          30.
    108,          -5.,           0.,          25.
    109,          -5.,           0.,          20.
    110,          -5.,           0.,          15.
    111,          -5.,           0.,          10.
    112,          -5.,           0.,           5.
    113,  -1.79999995,           0.,         100.
    114,   -2.5999999,           0.,         100.
    115,   -3.4000001,           0.,         100.
    116,  -4.19999981,           0.,         100.
    117,          -5.,  0.119999997,         100.
    118,          -5., 0.0900000036,         100.
    119,          -5., 0.0599999987,         100.
    120,          -5., 0.0299999993,         100.
    121,          -1., 0.0299999993,         100.
    122,          -1., 0.0599999987,         100.
    123,          -1., 0.0900000036,         100.
    124,          -1.,  0.119999997,         100.
    125,          -5., 0.0299999993,           0.
    126,          -5., 0.0599999987,           0.
    127,          -5., 0.0900000036,           0.
    128,          -5.,  0.119999997,           0.
    129,          -1.,  0.119999997,           0.
    130,          -1., 0.0900000036,           0.
    131,          -1., 0.0599999987,           0.
    132,          -1., 0.0299999993,           0.
    133,  -5.76923084,  0.150000006,           0.
    134,  -6.53846169,  0.150000006,           0.
    135,  -7.30769253,  0.150000006,           0.
    136,  -8.07692337,  0.150000006,           0.
    137,  -8.84615421,  0.150000006,           0.
    138,  -9.61538506,  0.150000006,           0.
    139,  -10.3846149,  0.150000006,           0.
    140,  -11.1538458,  0.150000006,           0.
    141,  -11.9230766,  0.150000006,           0.
    142,  -12.6923075,  0.150000006,           0.
    143,  -13.4615383,  0.150000006,           0.
    144,  -14.2307692,  0.150000006,           0.
    145,         -15.,  0.150000006,           5.
    146,         -15.,  0.150000006,          10.
    147,         -15.,  0.150000006,          15.
    148,         -15.,  0.150000006,          20.
    149,         -15.,  0.150000006,          25.
    150,         -15.,  0.150000006,          30.
    151,         -15.,  0.150000006,          35.
    152,         -15.,  0.150000006,          40.
    153,         -15.,  0.150000006,          45.
    154,         -15.,  0.150000006,          50.
    155,         -15.,  0.150000006,          55.
    156,         -15.,  0.150000006,          60.
    157,         -15.,  0.150000006,          65.
    158,         -15.,  0.150000006,          70.
    159,         -15.,  0.150000006,          75.
    160,         -15.,  0.150000006,          80.
    161,         -15.,  0.150000006,          85.
    162,         -15.,  0.150000006,          90.
    163,         -15.,  0.150000006,          95.
    164,  -14.2307692,  0.150000006,         100.
    165,  -13.4615383,  0.150000006,         100.
    166,  -12.6923075,  0.150000006,         100.
    167,  -11.9230766,  0.150000006,         100.
    168,  -11.1538458,  0.150000006,         100.
    169,  -10.3846149,  0.150000006,         100.
    170,  -9.61538506,  0.150000006,         100.
    171,  -8.84615421,  0.150000006,         100.
    172,  -8.07692337,  0.150000006,         100.
    173,  -7.30769253,  0.150000006,         100.
    174,  -6.53846169,  0.150000006,         100.
    175,  -5.76923084,  0.150000006,         100.
    176,  -14.2307692,           0.,           0.
    177,  -13.4615383,           0.,           0.
    178,  -12.6923075,           0.,           0.
    179,  -11.9230766,           0.,           0.
    180,  -11.1538458,           0.,           0.
    181,  -10.3846149,           0.,           0.
    182,  -9.61538506,           0.,           0.
    183,  -8.84615421,           0.,           0.
    184,  -8.07692337,           0.,           0.
    185,  -7.30769253,           0.,           0.
    186,  -6.53846169,           0.,           0.
    187,  -5.76923084,           0.,           0.
    188,         -15.,           0.,          95.
    189,         -15.,           0.,          90.
    190,         -15.,           0.,          85.
    191,         -15.,           0.,          80.
    192,         -15.,           0.,          75.
    193,         -15.,           0.,          70.
    194,         -15.,           0.,          65.
    195,         -15.,           0.,          60.
    196,         -15.,           0.,          55.
    197,         -15.,           0.,          50.
    198,         -15.,           0.,          45.
    199,         -15.,           0.,          40.
    200,         -15.,           0.,          35.
    201,         -15.,           0.,          30.
    202,         -15.,           0.,          25.
    203,         -15.,           0.,          20.
    204,         -15.,           0.,          15.
    205,         -15.,           0.,          10.
    206,         -15.,           0.,           5.
    207,  -5.76923084,           0.,         100.
    208,  -6.53846169,           0.,         100.
    209,  -7.30769253,           0.,         100.
    210,  -8.07692337,           0.,         100.
    211,  -8.84615421,           0.,         100.
    212,  -9.61538506,           0.,         100.
    213,  -10.3846149,           0.,         100.
    214,  -11.1538458,           0.,         100.
    215,  -11.9230766,           0.,         100.
    216,  -12.6923075,           0.,         100.
    217,  -13.4615383,           0.,         100.
    218,  -14.2307692,           0.,         100.
    219,         -15.,  0.119999997,         100.
    220,         -15., 0.0900000036,         100.
    221,         -15., 0.0599999987,         100.
    222,         -15., 0.0299999993,         100.
    223,         -15., 0.0299999993,           0.
    224,         -15., 0.0599999987,           0.
    225,         -15., 0.0900000036,           0.
    226,         -15.,  0.119999997,           0.
    227,       -16.25,           0.,         100.
    228,        -17.5,           0.,         100.
    229,       -18.75,           0.,         100.
    230,         -20.,           0.,         100.
    231,       -21.25,           0.,         100.
    232,        -22.5,           0.,         100.
    233,       -23.75,           0.,         100.
    234,         -25.,           0.,         100.
    235,       -26.25,           0.,         100.
    236,        -27.5,           0.,         100.
    237,       -28.75,           0.,         100.
    238,         -30.,           0.,         100.
    239,       -31.25,           0.,         100.
    240,        -32.5,           0.,         100.
    241,       -33.75,           0.,         100.
    242,         -35.,           0.,          95.
    243,         -35.,           0.,          90.
    244,         -35.,           0.,          85.
    245,         -35.,           0.,          80.
    246,         -35.,           0.,          75.
    247,         -35.,           0.,          70.
    248,         -35.,           0.,          65.
    249,         -35.,           0.,          60.
    250,         -35.,           0.,          55.
    251,         -35.,           0.,          50.
    252,         -35.,           0.,          45.
    253,         -35.,           0.,          40.
    254,         -35.,           0.,          35.
    255,         -35.,           0.,          30.
    256,         -35.,           0.,          25.
    257,         -35.,           0.,          20.
    258,         -35.,           0.,          15.
    259,         -35.,           0.,          10.
    260,         -35.,           0.,           5.
    261,       -33.75,           0.,           0.
    262,        -32.5,           0.,           0.
    263,       -31.25,           0.,           0.
    264,         -30.,           0.,           0.
    265,       -28.75,           0.,           0.
    266,        -27.5,           0.,           0.
    267,       -26.25,           0.,           0.
    268,         -25.,           0.,           0.
    269,       -23.75,           0.,           0.
    270,        -22.5,           0.,           0.
    271,       -21.25,           0.,           0.
    272,         -20.,           0.,           0.
    273,       -18.75,           0.,           0.
    274,        -17.5,           0.,           0.
    275,       -16.25,           0.,           0.
    276,       -33.75,  0.150000006,         100.
    277,        -32.5,  0.150000006,         100.
    278,       -31.25,  0.150000006,         100.
    279,         -30.,  0.150000006,         100.
    280,       -28.75,  0.150000006,         100.
    281,        -27.5,  0.150000006,         100.
    282,       -26.25,  0.150000006,         100.
    283,         -25.,  0.150000006,         100.
    284,       -23.75,  0.150000006,         100.
    285,        -22.5,  0.150000006,         100.
    286,       -21.25,  0.150000006,         100.
    287,         -20.,  0.150000006,         100.
    288,       -18.75,  0.150000006,         100.
    289,        -17.5,  0.150000006,         100.
    290,       -16.25,  0.150000006,         100.
    291,         -35.,  0.150000006,           5.
    292,         -35.,  0.150000006,          10.
    293,         -35.,  0.150000006,          15.
    294,         -35.,  0.150000006,          20.
    295,         -35.,  0.150000006,          25.
    296,         -35.,  0.150000006,          30.
    297,         -35.,  0.150000006,          35.
    298,         -35.,  0.150000006,          40.
    299,         -35.,  0.150000006,          45.
    300,         -35.,  0.150000006,          50.
    301,         -35.,  0.150000006,          55.
    302,         -35.,  0.150000006,          60.
    303,         -35.,  0.150000006,          65.
    304,         -35.,  0.150000006,          70.
    305,         -35.,  0.150000006,          75.
    306,         -35.,  0.150000006,          80.
    307,         -35.,  0.150000006,          85.
    308,         -35.,  0.150000006,          90.
    309,         -35.,  0.150000006,          95.
    310,       -16.25,  0.150000006,           0.
    311,        -17.5,  0.150000006,           0.
    312,       -18.75,  0.150000006,           0.
    313,         -20.,  0.150000006,           0.
    314,       -21.25,  0.150000006,           0.
    315,        -22.5,  0.150000006,           0.
    316,       -23.75,  0.150000006,           0.
    317,         -25.,  0.150000006,           0.
    318,       -26.25,  0.150000006,           0.
    319,        -27.5,  0.150000006,           0.
    320,       -28.75,  0.150000006,           0.
    321,         -30.,  0.150000006,           0.
    322,       -31.25,  0.150000006,           0.
    323,        -32.5,  0.150000006,           0.
    324,       -33.75,  0.150000006,           0.
    325,         -35., 0.0299999993,           0.
    326,         -35., 0.0599999987,           0.
    327,         -35., 0.0900000036,           0.
    328,         -35.,  0.119999997,           0.
    329,         -35.,  0.119999997,         100.
    330,         -35., 0.0900000036,         100.
    331,         -35., 0.0599999987,         100.
    332,         -35., 0.0299999993,         100.
    333,        -36.5,           0.,         100.
    334,         -38.,           0.,         100.
    335,        -39.5,           0.,         100.
    336,         -41.,           0.,         100.
    337,        -42.5,           0.,         100.
    338,         -44.,           0.,         100.
    339,        -45.5,           0.,         100.
    340,         -47.,           0.,         100.
    341,        -48.5,           0.,         100.
    342,         -50.,           0.,          95.
    343,         -50.,           0.,          90.
    344,         -50.,           0.,          85.
    345,         -50.,           0.,          80.
    346,         -50.,           0.,          75.
    347,         -50.,           0.,          70.
    348,         -50.,           0.,          65.
    349,         -50.,           0.,          60.
    350,         -50.,           0.,          55.
    351,         -50.,           0.,          50.
    352,         -50.,           0.,          45.
    353,         -50.,           0.,          40.
    354,         -50.,           0.,          35.
    355,         -50.,           0.,          30.
    356,         -50.,           0.,          25.
    357,         -50.,           0.,          20.
    358,         -50.,           0.,          15.
    359,         -50.,           0.,          10.
    360,         -50.,           0.,           5.
    361,        -48.5,           0.,           0.
    362,         -47.,           0.,           0.
    363,        -45.5,           0.,           0.
    364,         -44.,           0.,           0.
    365,        -42.5,           0.,           0.
    366,         -41.,           0.,           0.
    367,        -39.5,           0.,           0.
    368,         -38.,           0.,           0.
    369,        -36.5,           0.,           0.
    370,        -48.5,  0.150000006,         100.
    371,         -47.,  0.150000006,         100.
    372,        -45.5,  0.150000006,         100.
    373,         -44.,  0.150000006,         100.
    374,        -42.5,  0.150000006,         100.
    375,         -41.,  0.150000006,         100.
    376,        -39.5,  0.150000006,         100.
    377,         -38.,  0.150000006,         100.
    378,        -36.5,  0.150000006,         100.
    379,         -50.,  0.150000006,           5.
    380,         -50.,  0.150000006,          10.
    381,         -50.,  0.150000006,          15.
    382,         -50.,  0.150000006,          20.
    383,         -50.,  0.150000006,          25.
    384,         -50.,  0.150000006,          30.
    385,         -50.,  0.150000006,          35.
    386,         -50.,  0.150000006,          40.
    387,         -50.,  0.150000006,          45.
    388,         -50.,  0.150000006,          50.
    389,         -50.,  0.150000006,          55.
    390,         -50.,  0.150000006,          60.
    391,         -50.,  0.150000006,          65.
    392,         -50.,  0.150000006,          70.
    393,         -50.,  0.150000006,          75.
    394,         -50.,  0.150000006,          80.
    395,         -50.,  0.150000006,          85.
    396,         -50.,  0.150000006,          90.
    397,         -50.,  0.150000006,          95.
    398,        -36.5,  0.150000006,           0.
    399,         -38.,  0.150000006,           0.
    400,        -39.5,  0.150000006,           0.
    401,         -41.,  0.150000006,           0.
    402,        -42.5,  0.150000006,           0.
    403,         -44.,  0.150000006,           0.
    404,        -45.5,  0.150000006,           0.
    405,         -47.,  0.150000006,           0.
    406,        -48.5,  0.150000006,           0.
    407,         -50., 0.0299999993,           0.
    408,         -50., 0.0599999987,           0.
    409,         -50., 0.0900000036,           0.
    410,         -50.,  0.119999997,           0.
    411,         -50.,  0.119999997,         100.
    412,         -50., 0.0900000036,         100.
    413,         -50., 0.0599999987,         100.
    414,         -50., 0.0299999993,         100.
    415,           0.,  0.119999997,         100.
    416,           0., 0.0900000036,         100.
    417,           0., 0.0599999987,         100.
    418,           0., 0.0299999993,         100.
    419,           0.,           0.,          95.
    420,           0.,           0.,          90.
    421,           0.,           0.,          85.
    422,           0.,           0.,          80.
    423,           0.,           0.,          75.
    424,           0.,           0.,          70.
    425,           0.,           0.,          65.
    426,           0.,           0.,          60.
    427,           0.,           0.,          55.
    428,           0.,           0.,          50.
    429,           0.,           0.,          45.
    430,           0.,           0.,          40.
    431,           0.,           0.,          35.
    432,           0.,           0.,          30.
    433,           0.,           0.,          25.
    434,           0.,           0.,          20.
    435,           0.,           0.,          15.
    436,           0.,           0.,          10.
    437,           0.,           0.,           5.
    438,           0., 0.0299999993,           0.
    439,           0., 0.0599999987,           0.
    440,           0., 0.0900000036,           0.
    441,           0.,  0.119999997,           0.
    442,           0.,  0.150000006,           5.
    443,           0.,  0.150000006,          10.
    444,           0.,  0.150000006,          15.
    445,           0.,  0.150000006,          20.
    446,           0.,  0.150000006,          25.
    447,           0.,  0.150000006,          30.
    448,           0.,  0.150000006,          35.
    449,           0.,  0.150000006,          40.
    450,           0.,  0.150000006,          45.
    451,           0.,  0.150000006,          50.
    452,           0.,  0.150000006,          55.
    453,           0.,  0.150000006,          60.
    454,           0.,  0.150000006,          65.
    455,           0.,  0.150000006,          70.
    456,           0.,  0.150000006,          75.
    457,           0.,  0.150000006,          80.
    458,           0.,  0.150000006,          85.
    459,           0.,  0.150000006,          90.
    460,           0.,  0.150000006,          95.
    461,  -1.79999995,  0.150000006,          95.
    462,  -1.79999995,  0.150000006,          90.
    463,  -1.79999995,  0.150000006,          85.
    464,  -1.79999995,  0.150000006,          80.
    465,  -1.79999995,  0.150000006,          75.
    466,  -1.79999995,  0.150000006,          70.
    467,  -1.79999995,  0.150000006,          65.
    468,  -1.79999995,  0.150000006,          60.
    469,  -1.79999995,  0.150000006,          55.
    470,  -1.79999995,  0.150000006,          50.
    471,  -1.79999995,  0.150000006,          45.
    472,  -1.79999995,  0.150000006,          40.
    473,  -1.79999995,  0.150000006,          35.
    474,  -1.79999995,  0.150000006,          30.
    475,  -1.79999995,  0.150000006,          25.
    476,  -1.79999995,  0.150000006,          20.
    477,  -1.79999995,  0.150000006,          15.
    478,  -1.79999995,  0.150000006,          10.
    479,  -1.79999995,  0.150000006,           5.
    480,   -2.5999999,  0.150000006,          95.
    481,   -2.5999999,  0.150000006,          90.
    482,   -2.5999999,  0.150000006,          85.
    483,   -2.5999999,  0.150000006,          80.
    484,   -2.5999999,  0.150000006,          75.
    485,   -2.5999999,  0.150000006,          70.
    486,   -2.5999999,  0.150000006,          65.
    487,   -2.5999999,  0.150000006,          60.
    488,   -2.5999999,  0.150000006,          55.
    489,   -2.5999999,  0.150000006,          50.
    490,   -2.5999999,  0.150000006,          45.
    491,   -2.5999999,  0.150000006,          40.
    492,   -2.5999999,  0.150000006,          35.
    493,   -2.5999999,  0.150000006,          30.
    494,   -2.5999999,  0.150000006,          25.
    495,   -2.5999999,  0.150000006,          20.
    496,   -2.5999999,  0.150000006,          15.
    497,   -2.5999999,  0.150000006,          10.
    498,   -2.5999999,  0.150000006,           5.
    499,   -3.4000001,  0.150000006,          95.
    500,   -3.4000001,  0.150000006,          90.
    501,   -3.4000001,  0.150000006,          85.
    502,   -3.4000001,  0.150000006,          80.
    503,   -3.4000001,  0.150000006,          75.
    504,   -3.4000001,  0.150000006,          70.
    505,   -3.4000001,  0.150000006,          65.
    506,   -3.4000001,  0.150000006,          60.
    507,   -3.4000001,  0.150000006,          55.
    508,   -3.4000001,  0.150000006,          50.
    509,   -3.4000001,  0.150000006,          45.
    510,   -3.4000001,  0.150000006,          40.
    511,   -3.4000001,  0.150000006,          35.
    512,   -3.4000001,  0.150000006,          30.
    513,   -3.4000001,  0.150000006,          25.
    514,   -3.4000001,  0.150000006,          20.
    515,   -3.4000001,  0.150000006,          15.
    516,   -3.4000001,  0.150000006,          10.
    517,   -3.4000001,  0.150000006,           5.
    518,  -4.19999981,  0.150000006,          95.
    519,  -4.19999981,  0.150000006,          90.
    520,  -4.19999981,  0.150000006,          85.
    521,  -4.19999981,  0.150000006,          80.
    522,  -4.19999981,  0.150000006,          75.
    523,  -4.19999981,  0.150000006,          70.
    524,  -4.19999981,  0.150000006,          65.
    525,  -4.19999981,  0.150000006,          60.
    526,  -4.19999981,  0.150000006,          55.
    527,  -4.19999981,  0.150000006,          50.
    528,  -4.19999981,  0.150000006,          45.
    529,  -4.19999981,  0.150000006,          40.
    530,  -4.19999981,  0.150000006,          35.
    531,  -4.19999981,  0.150000006,          30.
    532,  -4.19999981,  0.150000006,          25.
    533,  -4.19999981,  0.150000006,          20.
    534,  -4.19999981,  0.150000006,          15.
    535,  -4.19999981,  0.150000006,          10.
    536,  -4.19999981,  0.150000006,           5.
    537,  -1.79999995,           0.,          95.
    538,  -1.79999995,           0.,          90.
    539,  -1.79999995,           0.,          85.
    540,  -1.79999995,           0.,          80.
    541,  -1.79999995,           0.,          75.
    542,  -1.79999995,           0.,          70.
    543,  -1.79999995,           0.,          65.
    544,  -1.79999995,           0.,          60.
    545,  -1.79999995,           0.,          55.
    546,  -1.79999995,           0.,          50.
    547,  -1.79999995,           0.,          45.
    548,  -1.79999995,           0.,          40.
    549,  -1.79999995,           0.,          35.
    550,  -1.79999995,           0.,          30.
    551,  -1.79999995,           0.,          25.
    552,  -1.79999995,           0.,          20.
    553,  -1.79999995,           0.,          15.
    554,  -1.79999995,           0.,          10.
    555,  -1.79999995,           0.,           5.
    556,   -2.5999999,           0.,          95.
    557,   -2.5999999,           0.,          90.
    558,   -2.5999999,           0.,          85.
    559,   -2.5999999,           0.,          80.
    560,   -2.5999999,           0.,          75.
    561,   -2.5999999,           0.,          70.
    562,   -2.5999999,           0.,          65.
    563,   -2.5999999,           0.,          60.
    564,   -2.5999999,           0.,          55.
    565,   -2.5999999,           0.,          50.
    566,   -2.5999999,           0.,          45.
    567,   -2.5999999,           0.,          40.
    568,   -2.5999999,           0.,          35.
    569,   -2.5999999,           0.,          30.
    570,   -2.5999999,           0.,          25.
    571,   -2.5999999,           0.,          20.
    572,   -2.5999999,           0.,          15.
    573,   -2.5999999,           0.,          10.
    574,   -2.5999999,           0.,           5.
    575,   -3.4000001,           0.,          95.
    576,   -3.4000001,           0.,          90.
    577,   -3.4000001,           0.,          85.
    578,   -3.4000001,           0.,          80.
    579,   -3.4000001,           0.,          75.
    580,   -3.4000001,           0.,          70.
    581,   -3.4000001,           0.,          65.
    582,   -3.4000001,           0.,          60.
    583,   -3.4000001,           0.,          55.
    584,   -3.4000001,           0.,          50.
    585,   -3.4000001,           0.,          45.
    586,   -3.4000001,           0.,          40.
    587,   -3.4000001,           0.,          35.
    588,   -3.4000001,           0.,          30.
    589,   -3.4000001,           0.,          25.
    590,   -3.4000001,           0.,          20.
    591,   -3.4000001,           0.,          15.
    592,   -3.4000001,           0.,          10.
    593,   -3.4000001,           0.,           5.
    594,  -4.19999981,           0.,          95.
    595,  -4.19999981,           0.,          90.
    596,  -4.19999981,           0.,          85.
    597,  -4.19999981,           0.,          80.
    598,  -4.19999981,           0.,          75.
    599,  -4.19999981,           0.,          70.
    600,  -4.19999981,           0.,          65.
    601,  -4.19999981,           0.,          60.
    602,  -4.19999981,           0.,          55.
    603,  -4.19999981,           0.,          50.
    604,  -4.19999981,           0.,          45.
    605,  -4.19999981,           0.,          40.
    606,  -4.19999981,           0.,          35.
    607,  -4.19999981,           0.,          30.
    608,  -4.19999981,           0.,          25.
    609,  -4.19999981,           0.,          20.
    610,  -4.19999981,           0.,          15.
    611,  -4.19999981,           0.,          10.
    612,  -4.19999981,           0.,           5.
    613,  -1.79999995,  0.119999997,         100.
    614,   -2.5999999,  0.119999997,         100.
    615,   -3.4000001,  0.119999997,         100.
    616,  -4.19999981,  0.119999997,         100.
    617,  -1.79999995, 0.0900000036,         100.
    618,   -2.5999999, 0.0900000036,         100.
    619,   -3.4000001, 0.0900000036,         100.
    620,  -4.19999981, 0.0900000036,         100.
    621,  -1.79999995, 0.0599999987,         100.
    622,   -2.5999999, 0.0599999987,         100.
    623,   -3.4000001, 0.0599999987,         100.
    624,  -4.19999981, 0.0599999987,         100.
    625,  -1.79999995, 0.0299999993,         100.
    626,   -2.5999999, 0.0299999993,         100.
    627,   -3.4000001, 0.0299999993,         100.
    628,  -4.19999981, 0.0299999993,         100.
    629,  -1.79999995,  0.119999997,           0.
    630,   -2.5999999,  0.119999997,           0.
    631,   -3.4000001,  0.119999997,           0.
    632,  -4.19999981,  0.119999997,           0.
    633,  -1.79999995, 0.0900000036,           0.
    634,   -2.5999999, 0.0900000036,           0.
    635,   -3.4000001, 0.0900000036,           0.
    636,  -4.19999981, 0.0900000036,           0.
    637,  -1.79999995, 0.0599999987,           0.
    638,   -2.5999999, 0.0599999987,           0.
    639,   -3.4000001, 0.0599999987,           0.
    640,  -4.19999981, 0.0599999987,           0.
    641,  -1.79999995, 0.0299999993,           0.
    642,   -2.5999999, 0.0299999993,           0.
    643,   -3.4000001, 0.0299999993,           0.
    644,  -4.19999981, 0.0299999993,           0.
    645,          -1.,  0.119999997,          95.
    646,          -1.,  0.119999997,          90.
    647,          -1.,  0.119999997,          85.
    648,          -1.,  0.119999997,          80.
    649,          -1.,  0.119999997,          75.
    650,          -1.,  0.119999997,          70.
    651,          -1.,  0.119999997,          65.
    652,          -1.,  0.119999997,          60.
    653,          -1.,  0.119999997,          55.
    654,          -1.,  0.119999997,          50.
    655,          -1.,  0.119999997,          45.
    656,          -1.,  0.119999997,          40.
    657,          -1.,  0.119999997,          35.
    658,          -1.,  0.119999997,          30.
    659,          -1.,  0.119999997,          25.
    660,          -1.,  0.119999997,          20.
    661,          -1.,  0.119999997,          15.
    662,          -1.,  0.119999997,          10.
    663,          -1.,  0.119999997,           5.
    664,          -1., 0.0900000036,          95.
    665,          -1., 0.0900000036,          90.
    666,          -1., 0.0900000036,          85.
    667,          -1., 0.0900000036,          80.
    668,          -1., 0.0900000036,          75.
    669,          -1., 0.0900000036,          70.
    670,          -1., 0.0900000036,          65.
    671,          -1., 0.0900000036,          60.
    672,          -1., 0.0900000036,          55.
    673,          -1., 0.0900000036,          50.
    674,          -1., 0.0900000036,          45.
    675,          -1., 0.0900000036,          40.
    676,          -1., 0.0900000036,          35.
    677,          -1., 0.0900000036,          30.
    678,          -1., 0.0900000036,          25.
    679,          -1., 0.0900000036,          20.
    680,          -1., 0.0900000036,          15.
    681,          -1., 0.0900000036,          10.
    682,          -1., 0.0900000036,           5.
    683,          -1., 0.0599999987,          95.
    684,          -1., 0.0599999987,          90.
    685,          -1., 0.0599999987,          85.
    686,          -1., 0.0599999987,          80.
    687,          -1., 0.0599999987,          75.
    688,          -1., 0.0599999987,          70.
    689,          -1., 0.0599999987,          65.
    690,          -1., 0.0599999987,          60.
    691,          -1., 0.0599999987,          55.
    692,          -1., 0.0599999987,          50.
    693,          -1., 0.0599999987,          45.
    694,          -1., 0.0599999987,          40.
    695,          -1., 0.0599999987,          35.
    696,          -1., 0.0599999987,          30.
    697,          -1., 0.0599999987,          25.
    698,          -1., 0.0599999987,          20.
    699,          -1., 0.0599999987,          15.
    700,          -1., 0.0599999987,          10.
    701,          -1., 0.0599999987,           5.
    702,          -1., 0.0299999993,          95.
    703,          -1., 0.0299999993,          90.
    704,          -1., 0.0299999993,          85.
    705,          -1., 0.0299999993,          80.
    706,          -1., 0.0299999993,          75.
    707,          -1., 0.0299999993,          70.
    708,          -1., 0.0299999993,          65.
    709,          -1., 0.0299999993,          60.
    710,          -1., 0.0299999993,          55.
    711,          -1., 0.0299999993,          50.
    712,          -1., 0.0299999993,          45.
    713,          -1., 0.0299999993,          40.
    714,          -1., 0.0299999993,          35.
    715,          -1., 0.0299999993,          30.
    716,          -1., 0.0299999993,          25.
    717,          -1., 0.0299999993,          20.
    718,          -1., 0.0299999993,          15.
    719,          -1., 0.0299999993,          10.
    720,          -1., 0.0299999993,           5.
    721,          -5.,  0.119999997,          95.
    722,          -5.,  0.119999997,          90.
    723,          -5.,  0.119999997,          85.
    724,          -5.,  0.119999997,          80.
    725,          -5.,  0.119999997,          75.
    726,          -5.,  0.119999997,          70.
    727,          -5.,  0.119999997,          65.
    728,          -5.,  0.119999997,          60.
    729,          -5.,  0.119999997,          55.
    730,          -5.,  0.119999997,          50.
    731,          -5.,  0.119999997,          45.
    732,          -5.,  0.119999997,          40.
    733,          -5.,  0.119999997,          35.
    734,          -5.,  0.119999997,          30.
    735,          -5.,  0.119999997,          25.
    736,          -5.,  0.119999997,          20.
    737,          -5.,  0.119999997,          15.
    738,          -5.,  0.119999997,          10.
    739,          -5.,  0.119999997,           5.
    740,          -5., 0.0900000036,          95.
    741,          -5., 0.0900000036,          90.
    742,          -5., 0.0900000036,          85.
    743,          -5., 0.0900000036,          80.
    744,          -5., 0.0900000036,          75.
    745,          -5., 0.0900000036,          70.
    746,          -5., 0.0900000036,          65.
    747,          -5., 0.0900000036,          60.
    748,          -5., 0.0900000036,          55.
    749,          -5., 0.0900000036,          50.
    750,          -5., 0.0900000036,          45.
    751,          -5., 0.0900000036,          40.
    752,          -5., 0.0900000036,          35.
    753,          -5., 0.0900000036,          30.
    754,          -5., 0.0900000036,          25.
    755,          -5., 0.0900000036,          20.
    756,          -5., 0.0900000036,          15.
    757,          -5., 0.0900000036,          10.
    758,          -5., 0.0900000036,           5.
    759,          -5., 0.0599999987,          95.
    760,          -5., 0.0599999987,          90.
    761,          -5., 0.0599999987,          85.
    762,          -5., 0.0599999987,          80.
    763,          -5., 0.0599999987,          75.
    764,          -5., 0.0599999987,          70.
    765,          -5., 0.0599999987,          65.
    766,          -5., 0.0599999987,          60.
    767,          -5., 0.0599999987,          55.
    768,          -5., 0.0599999987,          50.
    769,          -5., 0.0599999987,          45.
    770,          -5., 0.0599999987,          40.
    771,          -5., 0.0599999987,          35.
    772,          -5., 0.0599999987,          30.
    773,          -5., 0.0599999987,          25.
    774,          -5., 0.0599999987,          20.
    775,          -5., 0.0599999987,          15.
    776,          -5., 0.0599999987,          10.
    777,          -5., 0.0599999987,           5.
    778,          -5., 0.0299999993,          95.
    779,          -5., 0.0299999993,          90.
    780,          -5., 0.0299999993,          85.
    781,          -5., 0.0299999993,          80.
    782,          -5., 0.0299999993,          75.
    783,          -5., 0.0299999993,          70.
    784,          -5., 0.0299999993,          65.
    785,          -5., 0.0299999993,          60.
    786,          -5., 0.0299999993,          55.
    787,          -5., 0.0299999993,          50.
    788,          -5., 0.0299999993,          45.
    789,          -5., 0.0299999993,          40.
    790,          -5., 0.0299999993,          35.
    791,          -5., 0.0299999993,          30.
    792,          -5., 0.0299999993,          25.
    793,          -5., 0.0299999993,          20.
    794,          -5., 0.0299999993,          15.
    795,          -5., 0.0299999993,          10.
    796,          -5., 0.0299999993,           5.
    797,  -5.76923084,  0.150000006,          95.
    798,  -5.76923084,  0.150000006,          90.
    799,  -5.76923084,  0.150000006,          85.
    800,  -5.76923084,  0.150000006,          80.
    801,  -5.76923084,  0.150000006,          75.
    802,  -5.76923084,  0.150000006,          70.
    803,  -5.76923084,  0.150000006,          65.
    804,  -5.76923084,  0.150000006,          60.
    805,  -5.76923084,  0.150000006,          55.
    806,  -5.76923084,  0.150000006,          50.
    807,  -5.76923084,  0.150000006,          45.
    808,  -5.76923084,  0.150000006,          40.
    809,  -5.76923084,  0.150000006,          35.
    810,  -5.76923084,  0.150000006,          30.
    811,  -5.76923084,  0.150000006,          25.
    812,  -5.76923084,  0.150000006,          20.
    813,  -5.76923084,  0.150000006,          15.
    814,  -5.76923084,  0.150000006,          10.
    815,  -5.76923084,  0.150000006,           5.
    816,  -6.53846169,  0.150000006,          95.
    817,  -6.53846169,  0.150000006,          90.
    818,  -6.53846169,  0.150000006,          85.
    819,  -6.53846169,  0.150000006,          80.
    820,  -6.53846169,  0.150000006,          75.
    821,  -6.53846169,  0.150000006,          70.
    822,  -6.53846169,  0.150000006,          65.
    823,  -6.53846169,  0.150000006,          60.
    824,  -6.53846169,  0.150000006,          55.
    825,  -6.53846169,  0.150000006,          50.
    826,  -6.53846169,  0.150000006,          45.
    827,  -6.53846169,  0.150000006,          40.
    828,  -6.53846169,  0.150000006,          35.
    829,  -6.53846169,  0.150000006,          30.
    830,  -6.53846169,  0.150000006,          25.
    831,  -6.53846169,  0.150000006,          20.
    832,  -6.53846169,  0.150000006,          15.
    833,  -6.53846169,  0.150000006,          10.
    834,  -6.53846169,  0.150000006,           5.
    835,  -7.30769253,  0.150000006,          95.
    836,  -7.30769253,  0.150000006,          90.
    837,  -7.30769253,  0.150000006,          85.
    838,  -7.30769253,  0.150000006,          80.
    839,  -7.30769253,  0.150000006,          75.
    840,  -7.30769253,  0.150000006,          70.
    841,  -7.30769253,  0.150000006,          65.
    842,  -7.30769253,  0.150000006,          60.
    843,  -7.30769253,  0.150000006,          55.
    844,  -7.30769253,  0.150000006,          50.
    845,  -7.30769253,  0.150000006,          45.
    846,  -7.30769253,  0.150000006,          40.
    847,  -7.30769253,  0.150000006,          35.
    848,  -7.30769253,  0.150000006,          30.
    849,  -7.30769253,  0.150000006,          25.
    850,  -7.30769253,  0.150000006,          20.
    851,  -7.30769253,  0.150000006,          15.
    852,  -7.30769253,  0.150000006,          10.
    853,  -7.30769253,  0.150000006,           5.
    854,  -8.07692337,  0.150000006,          95.
    855,  -8.07692337,  0.150000006,          90.
    856,  -8.07692337,  0.150000006,          85.
    857,  -8.07692337,  0.150000006,          80.
    858,  -8.07692337,  0.150000006,          75.
    859,  -8.07692337,  0.150000006,          70.
    860,  -8.07692337,  0.150000006,          65.
    861,  -8.07692337,  0.150000006,          60.
    862,  -8.07692337,  0.150000006,          55.
    863,  -8.07692337,  0.150000006,          50.
    864,  -8.07692337,  0.150000006,          45.
    865,  -8.07692337,  0.150000006,          40.
    866,  -8.07692337,  0.150000006,          35.
    867,  -8.07692337,  0.150000006,          30.
    868,  -8.07692337,  0.150000006,          25.
    869,  -8.07692337,  0.150000006,          20.
    870,  -8.07692337,  0.150000006,          15.
    871,  -8.07692337,  0.150000006,          10.
    872,  -8.07692337,  0.150000006,           5.
    873,  -8.84615421,  0.150000006,          95.
    874,  -8.84615421,  0.150000006,          90.
    875,  -8.84615421,  0.150000006,          85.
    876,  -8.84615421,  0.150000006,          80.
    877,  -8.84615421,  0.150000006,          75.
    878,  -8.84615421,  0.150000006,          70.
    879,  -8.84615421,  0.150000006,          65.
    880,  -8.84615421,  0.150000006,          60.
    881,  -8.84615421,  0.150000006,          55.
    882,  -8.84615421,  0.150000006,          50.
    883,  -8.84615421,  0.150000006,          45.
    884,  -8.84615421,  0.150000006,          40.
    885,  -8.84615421,  0.150000006,          35.
    886,  -8.84615421,  0.150000006,          30.
    887,  -8.84615421,  0.150000006,          25.
    888,  -8.84615421,  0.150000006,          20.
    889,  -8.84615421,  0.150000006,          15.
    890,  -8.84615421,  0.150000006,          10.
    891,  -8.84615421,  0.150000006,           5.
    892,  -9.61538506,  0.150000006,          95.
    893,  -9.61538506,  0.150000006,          90.
    894,  -9.61538506,  0.150000006,          85.
    895,  -9.61538506,  0.150000006,          80.
    896,  -9.61538506,  0.150000006,          75.
    897,  -9.61538506,  0.150000006,          70.
    898,  -9.61538506,  0.150000006,          65.
    899,  -9.61538506,  0.150000006,          60.
    900,  -9.61538506,  0.150000006,          55.
    901,  -9.61538506,  0.150000006,          50.
    902,  -9.61538506,  0.150000006,          45.
    903,  -9.61538506,  0.150000006,          40.
    904,  -9.61538506,  0.150000006,          35.
    905,  -9.61538506,  0.150000006,          30.
    906,  -9.61538506,  0.150000006,          25.
    907,  -9.61538506,  0.150000006,          20.
    908,  -9.61538506,  0.150000006,          15.
    909,  -9.61538506,  0.150000006,          10.
    910,  -9.61538506,  0.150000006,           5.
    911,  -10.3846149,  0.150000006,          95.
    912,  -10.3846149,  0.150000006,          90.
    913,  -10.3846149,  0.150000006,          85.
    914,  -10.3846149,  0.150000006,          80.
    915,  -10.3846149,  0.150000006,          75.
    916,  -10.3846149,  0.150000006,          70.
    917,  -10.3846149,  0.150000006,          65.
    918,  -10.3846149,  0.150000006,          60.
    919,  -10.3846149,  0.150000006,          55.
    920,  -10.3846149,  0.150000006,          50.
    921,  -10.3846149,  0.150000006,          45.
    922,  -10.3846149,  0.150000006,          40.
    923,  -10.3846149,  0.150000006,          35.
    924,  -10.3846149,  0.150000006,          30.
    925,  -10.3846149,  0.150000006,          25.
    926,  -10.3846149,  0.150000006,          20.
    927,  -10.3846149,  0.150000006,          15.
    928,  -10.3846149,  0.150000006,          10.
    929,  -10.3846149,  0.150000006,           5.
    930,  -11.1538458,  0.150000006,          95.
    931,  -11.1538458,  0.150000006,          90.
    932,  -11.1538458,  0.150000006,          85.
    933,  -11.1538458,  0.150000006,          80.
    934,  -11.1538458,  0.150000006,          75.
    935,  -11.1538458,  0.150000006,          70.
    936,  -11.1538458,  0.150000006,          65.
    937,  -11.1538458,  0.150000006,          60.
    938,  -11.1538458,  0.150000006,          55.
    939,  -11.1538458,  0.150000006,          50.
    940,  -11.1538458,  0.150000006,          45.
    941,  -11.1538458,  0.150000006,          40.
    942,  -11.1538458,  0.150000006,          35.
    943,  -11.1538458,  0.150000006,          30.
    944,  -11.1538458,  0.150000006,          25.
    945,  -11.1538458,  0.150000006,          20.
    946,  -11.1538458,  0.150000006,          15.
    947,  -11.1538458,  0.150000006,          10.
    948,  -11.1538458,  0.150000006,           5.
    949,  -11.9230766,  0.150000006,          95.
    950,  -11.9230766,  0.150000006,          90.
    951,  -11.9230766,  0.150000006,          85.
    952,  -11.9230766,  0.150000006,          80.
    953,  -11.9230766,  0.150000006,          75.
    954,  -11.9230766,  0.150000006,          70.
    955,  -11.9230766,  0.150000006,          65.
    956,  -11.9230766,  0.150000006,          60.
    957,  -11.9230766,  0.150000006,          55.
    958,  -11.9230766,  0.150000006,          50.
    959,  -11.9230766,  0.150000006,          45.
    960,  -11.9230766,  0.150000006,          40.
    961,  -11.9230766,  0.150000006,          35.
    962,  -11.9230766,  0.150000006,          30.
    963,  -11.9230766,  0.150000006,          25.
    964,  -11.9230766,  0.150000006,          20.
    965,  -11.9230766,  0.150000006,          15.
    966,  -11.9230766,  0.150000006,          10.
    967,  -11.9230766,  0.150000006,           5.
    968,  -12.6923075,  0.150000006,          95.
    969,  -12.6923075,  0.150000006,          90.
    970,  -12.6923075,  0.150000006,          85.
    971,  -12.6923075,  0.150000006,          80.
    972,  -12.6923075,  0.150000006,          75.
    973,  -12.6923075,  0.150000006,          70.
    974,  -12.6923075,  0.150000006,          65.
    975,  -12.6923075,  0.150000006,          60.
    976,  -12.6923075,  0.150000006,          55.
    977,  -12.6923075,  0.150000006,          50.
    978,  -12.6923075,  0.150000006,          45.
    979,  -12.6923075,  0.150000006,          40.
    980,  -12.6923075,  0.150000006,          35.
    981,  -12.6923075,  0.150000006,          30.
    982,  -12.6923075,  0.150000006,          25.
    983,  -12.6923075,  0.150000006,          20.
    984,  -12.6923075,  0.150000006,          15.
    985,  -12.6923075,  0.150000006,          10.
    986,  -12.6923075,  0.150000006,           5.
    987,  -13.4615383,  0.150000006,          95.
    988,  -13.4615383,  0.150000006,          90.
    989,  -13.4615383,  0.150000006,          85.
    990,  -13.4615383,  0.150000006,          80.
    991,  -13.4615383,  0.150000006,          75.
    992,  -13.4615383,  0.150000006,          70.
    993,  -13.4615383,  0.150000006,          65.
    994,  -13.4615383,  0.150000006,          60.
    995,  -13.4615383,  0.150000006,          55.
    996,  -13.4615383,  0.150000006,          50.
    997,  -13.4615383,  0.150000006,          45.
    998,  -13.4615383,  0.150000006,          40.
    999,  -13.4615383,  0.150000006,          35.
   1000,  -13.4615383,  0.150000006,          30.
   1001,  -13.4615383,  0.150000006,          25.
   1002,  -13.4615383,  0.150000006,          20.
   1003,  -13.4615383,  0.150000006,          15.
   1004,  -13.4615383,  0.150000006,          10.
   1005,  -13.4615383,  0.150000006,           5.
   1006,  -14.2307692,  0.150000006,          95.
   1007,  -14.2307692,  0.150000006,          90.
   1008,  -14.2307692,  0.150000006,          85.
   1009,  -14.2307692,  0.150000006,          80.
   1010,  -14.2307692,  0.150000006,          75.
   1011,  -14.2307692,  0.150000006,          70.
   1012,  -14.2307692,  0.150000006,          65.
   1013,  -14.2307692,  0.150000006,          60.
   1014,  -14.2307692,  0.150000006,          55.
   1015,  -14.2307692,  0.150000006,          50.
   1016,  -14.2307692,  0.150000006,          45.
   1017,  -14.2307692,  0.150000006,          40.
   1018,  -14.2307692,  0.150000006,          35.
   1019,  -14.2307692,  0.150000006,          30.
   1020,  -14.2307692,  0.150000006,          25.
   1021,  -14.2307692,  0.150000006,          20.
   1022,  -14.2307692,  0.150000006,          15.
   1023,  -14.2307692,  0.150000006,          10.
   1024,  -14.2307692,  0.150000006,           5.
   1025,  -5.76923084,           0.,          95.
   1026,  -5.76923084,           0.,          90.
   1027,  -5.76923084,           0.,          85.
   1028,  -5.76923084,           0.,          80.
   1029,  -5.76923084,           0.,          75.
   1030,  -5.76923084,           0.,          70.
   1031,  -5.76923084,           0.,          65.
   1032,  -5.76923084,           0.,          60.
   1033,  -5.76923084,           0.,          55.
   1034,  -5.76923084,           0.,          50.
   1035,  -5.76923084,           0.,          45.
   1036,  -5.76923084,           0.,          40.
   1037,  -5.76923084,           0.,          35.
   1038,  -5.76923084,           0.,          30.
   1039,  -5.76923084,           0.,          25.
   1040,  -5.76923084,           0.,          20.
   1041,  -5.76923084,           0.,          15.
   1042,  -5.76923084,           0.,          10.
   1043,  -5.76923084,           0.,           5.
   1044,  -6.53846169,           0.,          95.
   1045,  -6.53846169,           0.,          90.
   1046,  -6.53846169,           0.,          85.
   1047,  -6.53846169,           0.,          80.
   1048,  -6.53846169,           0.,          75.
   1049,  -6.53846169,           0.,          70.
   1050,  -6.53846169,           0.,          65.
   1051,  -6.53846169,           0.,          60.
   1052,  -6.53846169,           0.,          55.
   1053,  -6.53846169,           0.,          50.
   1054,  -6.53846169,           0.,          45.
   1055,  -6.53846169,           0.,          40.
   1056,  -6.53846169,           0.,          35.
   1057,  -6.53846169,           0.,          30.
   1058,  -6.53846169,           0.,          25.
   1059,  -6.53846169,           0.,          20.
   1060,  -6.53846169,           0.,          15.
   1061,  -6.53846169,           0.,          10.
   1062,  -6.53846169,           0.,           5.
   1063,  -7.30769253,           0.,          95.
   1064,  -7.30769253,           0.,          90.
   1065,  -7.30769253,           0.,          85.
   1066,  -7.30769253,           0.,          80.
   1067,  -7.30769253,           0.,          75.
   1068,  -7.30769253,           0.,          70.
   1069,  -7.30769253,           0.,          65.
   1070,  -7.30769253,           0.,          60.
   1071,  -7.30769253,           0.,          55.
   1072,  -7.30769253,           0.,          50.
   1073,  -7.30769253,           0.,          45.
   1074,  -7.30769253,           0.,          40.
   1075,  -7.30769253,           0.,          35.
   1076,  -7.30769253,           0.,          30.
   1077,  -7.30769253,           0.,          25.
   1078,  -7.30769253,           0.,          20.
   1079,  -7.30769253,           0.,          15.
   1080,  -7.30769253,           0.,          10.
   1081,  -7.30769253,           0.,           5.
   1082,  -8.07692337,           0.,          95.
   1083,  -8.07692337,           0.,          90.
   1084,  -8.07692337,           0.,          85.
   1085,  -8.07692337,           0.,          80.
   1086,  -8.07692337,           0.,          75.
   1087,  -8.07692337,           0.,          70.
   1088,  -8.07692337,           0.,          65.
   1089,  -8.07692337,           0.,          60.
   1090,  -8.07692337,           0.,          55.
   1091,  -8.07692337,           0.,          50.
   1092,  -8.07692337,           0.,          45.
   1093,  -8.07692337,           0.,          40.
   1094,  -8.07692337,           0.,          35.
   1095,  -8.07692337,           0.,          30.
   1096,  -8.07692337,           0.,          25.
   1097,  -8.07692337,           0.,          20.
   1098,  -8.07692337,           0.,          15.
   1099,  -8.07692337,           0.,          10.
   1100,  -8.07692337,           0.,           5.
   1101,  -8.84615421,           0.,          95.
   1102,  -8.84615421,           0.,          90.
   1103,  -8.84615421,           0.,          85.
   1104,  -8.84615421,           0.,          80.
   1105,  -8.84615421,           0.,          75.
   1106,  -8.84615421,           0.,          70.
   1107,  -8.84615421,           0.,          65.
   1108,  -8.84615421,           0.,          60.
   1109,  -8.84615421,           0.,          55.
   1110,  -8.84615421,           0.,          50.
   1111,  -8.84615421,           0.,          45.
   1112,  -8.84615421,           0.,          40.
   1113,  -8.84615421,           0.,          35.
   1114,  -8.84615421,           0.,          30.
   1115,  -8.84615421,           0.,          25.
   1116,  -8.84615421,           0.,          20.
   1117,  -8.84615421,           0.,          15.
   1118,  -8.84615421,           0.,          10.
   1119,  -8.84615421,           0.,           5.
   1120,  -9.61538506,           0.,          95.
   1121,  -9.61538506,           0.,          90.
   1122,  -9.61538506,           0.,          85.
   1123,  -9.61538506,           0.,          80.
   1124,  -9.61538506,           0.,          75.
   1125,  -9.61538506,           0.,          70.
   1126,  -9.61538506,           0.,          65.
   1127,  -9.61538506,           0.,          60.
   1128,  -9.61538506,           0.,          55.
   1129,  -9.61538506,           0.,          50.
   1130,  -9.61538506,           0.,          45.
   1131,  -9.61538506,           0.,          40.
   1132,  -9.61538506,           0.,          35.
   1133,  -9.61538506,           0.,          30.
   1134,  -9.61538506,           0.,          25.
   1135,  -9.61538506,           0.,          20.
   1136,  -9.61538506,           0.,          15.
   1137,  -9.61538506,           0.,          10.
   1138,  -9.61538506,           0.,           5.
   1139,  -10.3846149,           0.,          95.
   1140,  -10.3846149,           0.,          90.
   1141,  -10.3846149,           0.,          85.
   1142,  -10.3846149,           0.,          80.
   1143,  -10.3846149,           0.,          75.
   1144,  -10.3846149,           0.,          70.
   1145,  -10.3846149,           0.,          65.
   1146,  -10.3846149,           0.,          60.
   1147,  -10.3846149,           0.,          55.
   1148,  -10.3846149,           0.,          50.
   1149,  -10.3846149,           0.,          45.
   1150,  -10.3846149,           0.,          40.
   1151,  -10.3846149,           0.,          35.
   1152,  -10.3846149,           0.,          30.
   1153,  -10.3846149,           0.,          25.
   1154,  -10.3846149,           0.,          20.
   1155,  -10.3846149,           0.,          15.
   1156,  -10.3846149,           0.,          10.
   1157,  -10.3846149,           0.,           5.
   1158,  -11.1538458,           0.,          95.
   1159,  -11.1538458,           0.,          90.
   1160,  -11.1538458,           0.,          85.
   1161,  -11.1538458,           0.,          80.
   1162,  -11.1538458,           0.,          75.
   1163,  -11.1538458,           0.,          70.
   1164,  -11.1538458,           0.,          65.
   1165,  -11.1538458,           0.,          60.
   1166,  -11.1538458,           0.,          55.
   1167,  -11.1538458,           0.,          50.
   1168,  -11.1538458,           0.,          45.
   1169,  -11.1538458,           0.,          40.
   1170,  -11.1538458,           0.,          35.
   1171,  -11.1538458,           0.,          30.
   1172,  -11.1538458,           0.,          25.
   1173,  -11.1538458,           0.,          20.
   1174,  -11.1538458,           0.,          15.
   1175,  -11.1538458,           0.,          10.
   1176,  -11.1538458,           0.,           5.
   1177,  -11.9230766,           0.,          95.
   1178,  -11.9230766,           0.,          90.
   1179,  -11.9230766,           0.,          85.
   1180,  -11.9230766,           0.,          80.
   1181,  -11.9230766,           0.,          75.
   1182,  -11.9230766,           0.,          70.
   1183,  -11.9230766,           0.,          65.
   1184,  -11.9230766,           0.,          60.
   1185,  -11.9230766,           0.,          55.
   1186,  -11.9230766,           0.,          50.
   1187,  -11.9230766,           0.,          45.
   1188,  -11.9230766,           0.,          40.
   1189,  -11.9230766,           0.,          35.
   1190,  -11.9230766,           0.,          30.
   1191,  -11.9230766,           0.,          25.
   1192,  -11.9230766,           0.,          20.
   1193,  -11.9230766,           0.,          15.
   1194,  -11.9230766,           0.,          10.
   1195,  -11.9230766,           0.,           5.
   1196,  -12.6923075,           0.,          95.
   1197,  -12.6923075,           0.,          90.
   1198,  -12.6923075,           0.,          85.
   1199,  -12.6923075,           0.,          80.
   1200,  -12.6923075,           0.,          75.
   1201,  -12.6923075,           0.,          70.
   1202,  -12.6923075,           0.,          65.
   1203,  -12.6923075,           0.,          60.
   1204,  -12.6923075,           0.,          55.
   1205,  -12.6923075,           0.,          50.
   1206,  -12.6923075,           0.,          45.
   1207,  -12.6923075,           0.,          40.
   1208,  -12.6923075,           0.,          35.
   1209,  -12.6923075,           0.,          30.
   1210,  -12.6923075,           0.,          25.
   1211,  -12.6923075,           0.,          20.
   1212,  -12.6923075,           0.,          15.
   1213,  -12.6923075,           0.,          10.
   1214,  -12.6923075,           0.,           5.
   1215,  -13.4615383,           0.,          95.
   1216,  -13.4615383,           0.,          90.
   1217,  -13.4615383,           0.,          85.
   1218,  -13.4615383,           0.,          80.
   1219,  -13.4615383,           0.,          75.
   1220,  -13.4615383,           0.,          70.
   1221,  -13.4615383,           0.,          65.
   1222,  -13.4615383,           0.,          60.
   1223,  -13.4615383,           0.,          55.
   1224,  -13.4615383,           0.,          50.
   1225,  -13.4615383,           0.,          45.
   1226,  -13.4615383,           0.,          40.
   1227,  -13.4615383,           0.,          35.
   1228,  -13.4615383,           0.,          30.
   1229,  -13.4615383,           0.,          25.
   1230,  -13.4615383,           0.,          20.
   1231,  -13.4615383,           0.,          15.
   1232,  -13.4615383,           0.,          10.
   1233,  -13.4615383,           0.,           5.
   1234,  -14.2307692,           0.,          95.
   1235,  -14.2307692,           0.,          90.
   1236,  -14.2307692,           0.,          85.
   1237,  -14.2307692,           0.,          80.
   1238,  -14.2307692,           0.,          75.
   1239,  -14.2307692,           0.,          70.
   1240,  -14.2307692,           0.,          65.
   1241,  -14.2307692,           0.,          60.
   1242,  -14.2307692,           0.,          55.
   1243,  -14.2307692,           0.,          50.
   1244,  -14.2307692,           0.,          45.
   1245,  -14.2307692,           0.,          40.
   1246,  -14.2307692,           0.,          35.
   1247,  -14.2307692,           0.,          30.
   1248,  -14.2307692,           0.,          25.
   1249,  -14.2307692,           0.,          20.
   1250,  -14.2307692,           0.,          15.
   1251,  -14.2307692,           0.,          10.
   1252,  -14.2307692,           0.,           5.
   1253,  -5.76923084,  0.119999997,         100.
   1254,  -6.53846169,  0.119999997,         100.
   1255,  -7.30769253,  0.119999997,         100.
   1256,  -8.07692337,  0.119999997,         100.
   1257,  -8.84615421,  0.119999997,         100.
   1258,  -9.61538506,  0.119999997,         100.
   1259,  -10.3846149,  0.119999997,         100.
   1260,  -11.1538458,  0.119999997,         100.
   1261,  -11.9230766,  0.119999997,         100.
   1262,  -12.6923075,  0.119999997,         100.
   1263,  -13.4615383,  0.119999997,         100.
   1264,  -14.2307692,  0.119999997,         100.
   1265,  -5.76923084, 0.0900000036,         100.
   1266,  -6.53846169, 0.0900000036,         100.
   1267,  -7.30769253, 0.0900000036,         100.
   1268,  -8.07692337, 0.0900000036,         100.
   1269,  -8.84615421, 0.0900000036,         100.
   1270,  -9.61538506, 0.0900000036,         100.
   1271,  -10.3846149, 0.0900000036,         100.
   1272,  -11.1538458, 0.0900000036,         100.
   1273,  -11.9230766, 0.0900000036,         100.
   1274,  -12.6923075, 0.0900000036,         100.
   1275,  -13.4615383, 0.0900000036,         100.
   1276,  -14.2307692, 0.0900000036,         100.
   1277,  -5.76923084, 0.0599999987,         100.
   1278,  -6.53846169, 0.0599999987,         100.
   1279,  -7.30769253, 0.0599999987,         100.
   1280,  -8.07692337, 0.0599999987,         100.
   1281,  -8.84615421, 0.0599999987,         100.
   1282,  -9.61538506, 0.0599999987,         100.
   1283,  -10.3846149, 0.0599999987,         100.
   1284,  -11.1538458, 0.0599999987,         100.
   1285,  -11.9230766, 0.0599999987,         100.
   1286,  -12.6923075, 0.0599999987,         100.
   1287,  -13.4615383, 0.0599999987,         100.
   1288,  -14.2307692, 0.0599999987,         100.
   1289,  -5.76923084, 0.0299999993,         100.
   1290,  -6.53846169, 0.0299999993,         100.
   1291,  -7.30769253, 0.0299999993,         100.
   1292,  -8.07692337, 0.0299999993,         100.
   1293,  -8.84615421, 0.0299999993,         100.
   1294,  -9.61538506, 0.0299999993,         100.
   1295,  -10.3846149, 0.0299999993,         100.
   1296,  -11.1538458, 0.0299999993,         100.
   1297,  -11.9230766, 0.0299999993,         100.
   1298,  -12.6923075, 0.0299999993,         100.
   1299,  -13.4615383, 0.0299999993,         100.
   1300,  -14.2307692, 0.0299999993,         100.
   1301,  -5.76923084,  0.119999997,           0.
   1302,  -6.53846169,  0.119999997,           0.
   1303,  -7.30769253,  0.119999997,           0.
   1304,  -8.07692337,  0.119999997,           0.
   1305,  -8.84615421,  0.119999997,           0.
   1306,  -9.61538506,  0.119999997,           0.
   1307,  -10.3846149,  0.119999997,           0.
   1308,  -11.1538458,  0.119999997,           0.
   1309,  -11.9230766,  0.119999997,           0.
   1310,  -12.6923075,  0.119999997,           0.
   1311,  -13.4615383,  0.119999997,           0.
   1312,  -14.2307692,  0.119999997,           0.
   1313,  -5.76923084, 0.0900000036,           0.
   1314,  -6.53846169, 0.0900000036,           0.
   1315,  -7.30769253, 0.0900000036,           0.
   1316,  -8.07692337, 0.0900000036,           0.
   1317,  -8.84615421, 0.0900000036,           0.
   1318,  -9.61538506, 0.0900000036,           0.
   1319,  -10.3846149, 0.0900000036,           0.
   1320,  -11.1538458, 0.0900000036,           0.
   1321,  -11.9230766, 0.0900000036,           0.
   1322,  -12.6923075, 0.0900000036,           0.
   1323,  -13.4615383, 0.0900000036,           0.
   1324,  -14.2307692, 0.0900000036,           0.
   1325,  -5.76923084, 0.0599999987,           0.
   1326,  -6.53846169, 0.0599999987,           0.
   1327,  -7.30769253, 0.0599999987,           0.
   1328,  -8.07692337, 0.0599999987,           0.
   1329,  -8.84615421, 0.0599999987,           0.
   1330,  -9.61538506, 0.0599999987,           0.
   1331,  -10.3846149, 0.0599999987,           0.
   1332,  -11.1538458, 0.0599999987,           0.
   1333,  -11.9230766, 0.0599999987,           0.
   1334,  -12.6923075, 0.0599999987,           0.
   1335,  -13.4615383, 0.0599999987,           0.
   1336,  -14.2307692, 0.0599999987,           0.
   1337,  -5.76923084, 0.0299999993,           0.
   1338,  -6.53846169, 0.0299999993,           0.
   1339,  -7.30769253, 0.0299999993,           0.
   1340,  -8.07692337, 0.0299999993,           0.
   1341,  -8.84615421, 0.0299999993,           0.
   1342,  -9.61538506, 0.0299999993,           0.
   1343,  -10.3846149, 0.0299999993,           0.
   1344,  -11.1538458, 0.0299999993,           0.
   1345,  -11.9230766, 0.0299999993,           0.
   1346,  -12.6923075, 0.0299999993,           0.
   1347,  -13.4615383, 0.0299999993,           0.
   1348,  -14.2307692, 0.0299999993,           0.
   1349,         -15.,  0.119999997,          95.
   1350,         -15.,  0.119999997,          90.
   1351,         -15.,  0.119999997,          85.
   1352,         -15.,  0.119999997,          80.
   1353,         -15.,  0.119999997,          75.
   1354,         -15.,  0.119999997,          70.
   1355,         -15.,  0.119999997,          65.
   1356,         -15.,  0.119999997,          60.
   1357,         -15.,  0.119999997,          55.
   1358,         -15.,  0.119999997,          50.
   1359,         -15.,  0.119999997,          45.
   1360,         -15.,  0.119999997,          40.
   1361,         -15.,  0.119999997,          35.
   1362,         -15.,  0.119999997,          30.
   1363,         -15.,  0.119999997,          25.
   1364,         -15.,  0.119999997,          20.
   1365,         -15.,  0.119999997,          15.
   1366,         -15.,  0.119999997,          10.
   1367,         -15.,  0.119999997,           5.
   1368,         -15., 0.0900000036,          95.
   1369,         -15., 0.0900000036,          90.
   1370,         -15., 0.0900000036,          85.
   1371,         -15., 0.0900000036,          80.
   1372,         -15., 0.0900000036,          75.
   1373,         -15., 0.0900000036,          70.
   1374,         -15., 0.0900000036,          65.
   1375,         -15., 0.0900000036,          60.
   1376,         -15., 0.0900000036,          55.
   1377,         -15., 0.0900000036,          50.
   1378,         -15., 0.0900000036,          45.
   1379,         -15., 0.0900000036,          40.
   1380,         -15., 0.0900000036,          35.
   1381,         -15., 0.0900000036,          30.
   1382,         -15., 0.0900000036,          25.
   1383,         -15., 0.0900000036,          20.
   1384,         -15., 0.0900000036,          15.
   1385,         -15., 0.0900000036,          10.
   1386,         -15., 0.0900000036,           5.
   1387,         -15., 0.0599999987,          95.
   1388,         -15., 0.0599999987,          90.
   1389,         -15., 0.0599999987,          85.
   1390,         -15., 0.0599999987,          80.
   1391,         -15., 0.0599999987,          75.
   1392,         -15., 0.0599999987,          70.
   1393,         -15., 0.0599999987,          65.
   1394,         -15., 0.0599999987,          60.
   1395,         -15., 0.0599999987,          55.
   1396,         -15., 0.0599999987,          50.
   1397,         -15., 0.0599999987,          45.
   1398,         -15., 0.0599999987,          40.
   1399,         -15., 0.0599999987,          35.
   1400,         -15., 0.0599999987,          30.
   1401,         -15., 0.0599999987,          25.
   1402,         -15., 0.0599999987,          20.
   1403,         -15., 0.0599999987,          15.
   1404,         -15., 0.0599999987,          10.
   1405,         -15., 0.0599999987,           5.
   1406,         -15., 0.0299999993,          95.
   1407,         -15., 0.0299999993,          90.
   1408,         -15., 0.0299999993,          85.
   1409,         -15., 0.0299999993,          80.
   1410,         -15., 0.0299999993,          75.
   1411,         -15., 0.0299999993,          70.
   1412,         -15., 0.0299999993,          65.
   1413,         -15., 0.0299999993,          60.
   1414,         -15., 0.0299999993,          55.
   1415,         -15., 0.0299999993,          50.
   1416,         -15., 0.0299999993,          45.
   1417,         -15., 0.0299999993,          40.
   1418,         -15., 0.0299999993,          35.
   1419,         -15., 0.0299999993,          30.
   1420,         -15., 0.0299999993,          25.
   1421,         -15., 0.0299999993,          20.
   1422,         -15., 0.0299999993,          15.
   1423,         -15., 0.0299999993,          10.
   1424,         -15., 0.0299999993,           5.
   1425,       -16.25,           0.,           5.
   1426,       -16.25,           0.,          10.
   1427,       -16.25,           0.,          15.
   1428,       -16.25,           0.,          20.
   1429,       -16.25,           0.,          25.
   1430,       -16.25,           0.,          30.
   1431,       -16.25,           0.,          35.
   1432,       -16.25,           0.,          40.
   1433,       -16.25,           0.,          45.
   1434,       -16.25,           0.,          50.
   1435,       -16.25,           0.,          55.
   1436,       -16.25,           0.,          60.
   1437,       -16.25,           0.,          65.
   1438,       -16.25,           0.,          70.
   1439,       -16.25,           0.,          75.
   1440,       -16.25,           0.,          80.
   1441,       -16.25,           0.,          85.
   1442,       -16.25,           0.,          90.
   1443,       -16.25,           0.,          95.
   1444,        -17.5,           0.,           5.
   1445,        -17.5,           0.,          10.
   1446,        -17.5,           0.,          15.
   1447,        -17.5,           0.,          20.
   1448,        -17.5,           0.,          25.
   1449,        -17.5,           0.,          30.
   1450,        -17.5,           0.,          35.
   1451,        -17.5,           0.,          40.
   1452,        -17.5,           0.,          45.
   1453,        -17.5,           0.,          50.
   1454,        -17.5,           0.,          55.
   1455,        -17.5,           0.,          60.
   1456,        -17.5,           0.,          65.
   1457,        -17.5,           0.,          70.
   1458,        -17.5,           0.,          75.
   1459,        -17.5,           0.,          80.
   1460,        -17.5,           0.,          85.
   1461,        -17.5,           0.,          90.
   1462,        -17.5,           0.,          95.
   1463,       -18.75,           0.,           5.
   1464,       -18.75,           0.,          10.
   1465,       -18.75,           0.,          15.
   1466,       -18.75,           0.,          20.
   1467,       -18.75,           0.,          25.
   1468,       -18.75,           0.,          30.
   1469,       -18.75,           0.,          35.
   1470,       -18.75,           0.,          40.
   1471,       -18.75,           0.,          45.
   1472,       -18.75,           0.,          50.
   1473,       -18.75,           0.,          55.
   1474,       -18.75,           0.,          60.
   1475,       -18.75,           0.,          65.
   1476,       -18.75,           0.,          70.
   1477,       -18.75,           0.,          75.
   1478,       -18.75,           0.,          80.
   1479,       -18.75,           0.,          85.
   1480,       -18.75,           0.,          90.
   1481,       -18.75,           0.,          95.
   1482,         -20.,           0.,           5.
   1483,         -20.,           0.,          10.
   1484,         -20.,           0.,          15.
   1485,         -20.,           0.,          20.
   1486,         -20.,           0.,          25.
   1487,         -20.,           0.,          30.
   1488,         -20.,           0.,          35.
   1489,         -20.,           0.,          40.
   1490,         -20.,           0.,          45.
   1491,         -20.,           0.,          50.
   1492,         -20.,           0.,          55.
   1493,         -20.,           0.,          60.
   1494,         -20.,           0.,          65.
   1495,         -20.,           0.,          70.
   1496,         -20.,           0.,          75.
   1497,         -20.,           0.,          80.
   1498,         -20.,           0.,          85.
   1499,         -20.,           0.,          90.
   1500,         -20.,           0.,          95.
   1501,       -21.25,           0.,           5.
   1502,       -21.25,           0.,          10.
   1503,       -21.25,           0.,          15.
   1504,       -21.25,           0.,          20.
   1505,       -21.25,           0.,          25.
   1506,       -21.25,           0.,          30.
   1507,       -21.25,           0.,          35.
   1508,       -21.25,           0.,          40.
   1509,       -21.25,           0.,          45.
   1510,       -21.25,           0.,          50.
   1511,       -21.25,           0.,          55.
   1512,       -21.25,           0.,          60.
   1513,       -21.25,           0.,          65.
   1514,       -21.25,           0.,          70.
   1515,       -21.25,           0.,          75.
   1516,       -21.25,           0.,          80.
   1517,       -21.25,           0.,          85.
   1518,       -21.25,           0.,          90.
   1519,       -21.25,           0.,          95.
   1520,        -22.5,           0.,           5.
   1521,        -22.5,           0.,          10.
   1522,        -22.5,           0.,          15.
   1523,        -22.5,           0.,          20.
   1524,        -22.5,           0.,          25.
   1525,        -22.5,           0.,          30.
   1526,        -22.5,           0.,          35.
   1527,        -22.5,           0.,          40.
   1528,        -22.5,           0.,          45.
   1529,        -22.5,           0.,          50.
   1530,        -22.5,           0.,          55.
   1531,        -22.5,           0.,          60.
   1532,        -22.5,           0.,          65.
   1533,        -22.5,           0.,          70.
   1534,        -22.5,           0.,          75.
   1535,        -22.5,           0.,          80.
   1536,        -22.5,           0.,          85.
   1537,        -22.5,           0.,          90.
   1538,        -22.5,           0.,          95.
   1539,       -23.75,           0.,           5.
   1540,       -23.75,           0.,          10.
   1541,       -23.75,           0.,          15.
   1542,       -23.75,           0.,          20.
   1543,       -23.75,           0.,          25.
   1544,       -23.75,           0.,          30.
   1545,       -23.75,           0.,          35.
   1546,       -23.75,           0.,          40.
   1547,       -23.75,           0.,          45.
   1548,       -23.75,           0.,          50.
   1549,       -23.75,           0.,          55.
   1550,       -23.75,           0.,          60.
   1551,       -23.75,           0.,          65.
   1552,       -23.75,           0.,          70.
   1553,       -23.75,           0.,          75.
   1554,       -23.75,           0.,          80.
   1555,       -23.75,           0.,          85.
   1556,       -23.75,           0.,          90.
   1557,       -23.75,           0.,          95.
   1558,         -25.,           0.,           5.
   1559,         -25.,           0.,          10.
   1560,         -25.,           0.,          15.
   1561,         -25.,           0.,          20.
   1562,         -25.,           0.,          25.
   1563,         -25.,           0.,          30.
   1564,         -25.,           0.,          35.
   1565,         -25.,           0.,          40.
   1566,         -25.,           0.,          45.
   1567,         -25.,           0.,          50.
   1568,         -25.,           0.,          55.
   1569,         -25.,           0.,          60.
   1570,         -25.,           0.,          65.
   1571,         -25.,           0.,          70.
   1572,         -25.,           0.,          75.
   1573,         -25.,           0.,          80.
   1574,         -25.,           0.,          85.
   1575,         -25.,           0.,          90.
   1576,         -25.,           0.,          95.
   1577,       -26.25,           0.,           5.
   1578,       -26.25,           0.,          10.
   1579,       -26.25,           0.,          15.
   1580,       -26.25,           0.,          20.
   1581,       -26.25,           0.,          25.
   1582,       -26.25,           0.,          30.
   1583,       -26.25,           0.,          35.
   1584,       -26.25,           0.,          40.
   1585,       -26.25,           0.,          45.
   1586,       -26.25,           0.,          50.
   1587,       -26.25,           0.,          55.
   1588,       -26.25,           0.,          60.
   1589,       -26.25,           0.,          65.
   1590,       -26.25,           0.,          70.
   1591,       -26.25,           0.,          75.
   1592,       -26.25,           0.,          80.
   1593,       -26.25,           0.,          85.
   1594,       -26.25,           0.,          90.
   1595,       -26.25,           0.,          95.
   1596,        -27.5,           0.,           5.
   1597,        -27.5,           0.,          10.
   1598,        -27.5,           0.,          15.
   1599,        -27.5,           0.,          20.
   1600,        -27.5,           0.,          25.
   1601,        -27.5,           0.,          30.
   1602,        -27.5,           0.,          35.
   1603,        -27.5,           0.,          40.
   1604,        -27.5,           0.,          45.
   1605,        -27.5,           0.,          50.
   1606,        -27.5,           0.,          55.
   1607,        -27.5,           0.,          60.
   1608,        -27.5,           0.,          65.
   1609,        -27.5,           0.,          70.
   1610,        -27.5,           0.,          75.
   1611,        -27.5,           0.,          80.
   1612,        -27.5,           0.,          85.
   1613,        -27.5,           0.,          90.
   1614,        -27.5,           0.,          95.
   1615,       -28.75,           0.,           5.
   1616,       -28.75,           0.,          10.
   1617,       -28.75,           0.,          15.
   1618,       -28.75,           0.,          20.
   1619,       -28.75,           0.,          25.
   1620,       -28.75,           0.,          30.
   1621,       -28.75,           0.,          35.
   1622,       -28.75,           0.,          40.
   1623,       -28.75,           0.,          45.
   1624,       -28.75,           0.,          50.
   1625,       -28.75,           0.,          55.
   1626,       -28.75,           0.,          60.
   1627,       -28.75,           0.,          65.
   1628,       -28.75,           0.,          70.
   1629,       -28.75,           0.,          75.
   1630,       -28.75,           0.,          80.
   1631,       -28.75,           0.,          85.
   1632,       -28.75,           0.,          90.
   1633,       -28.75,           0.,          95.
   1634,         -30.,           0.,           5.
   1635,         -30.,           0.,          10.
   1636,         -30.,           0.,          15.
   1637,         -30.,           0.,          20.
   1638,         -30.,           0.,          25.
   1639,         -30.,           0.,          30.
   1640,         -30.,           0.,          35.
   1641,         -30.,           0.,          40.
   1642,         -30.,           0.,          45.
   1643,         -30.,           0.,          50.
   1644,         -30.,           0.,          55.
   1645,         -30.,           0.,          60.
   1646,         -30.,           0.,          65.
   1647,         -30.,           0.,          70.
   1648,         -30.,           0.,          75.
   1649,         -30.,           0.,          80.
   1650,         -30.,           0.,          85.
   1651,         -30.,           0.,          90.
   1652,         -30.,           0.,          95.
   1653,       -31.25,           0.,           5.
   1654,       -31.25,           0.,          10.
   1655,       -31.25,           0.,          15.
   1656,       -31.25,           0.,          20.
   1657,       -31.25,           0.,          25.
   1658,       -31.25,           0.,          30.
   1659,       -31.25,           0.,          35.
   1660,       -31.25,           0.,          40.
   1661,       -31.25,           0.,          45.
   1662,       -31.25,           0.,          50.
   1663,       -31.25,           0.,          55.
   1664,       -31.25,           0.,          60.
   1665,       -31.25,           0.,          65.
   1666,       -31.25,           0.,          70.
   1667,       -31.25,           0.,          75.
   1668,       -31.25,           0.,          80.
   1669,       -31.25,           0.,          85.
   1670,       -31.25,           0.,          90.
   1671,       -31.25,           0.,          95.
   1672,        -32.5,           0.,           5.
   1673,        -32.5,           0.,          10.
   1674,        -32.5,           0.,          15.
   1675,        -32.5,           0.,          20.
   1676,        -32.5,           0.,          25.
   1677,        -32.5,           0.,          30.
   1678,        -32.5,           0.,          35.
   1679,        -32.5,           0.,          40.
   1680,        -32.5,           0.,          45.
   1681,        -32.5,           0.,          50.
   1682,        -32.5,           0.,          55.
   1683,        -32.5,           0.,          60.
   1684,        -32.5,           0.,          65.
   1685,        -32.5,           0.,          70.
   1686,        -32.5,           0.,          75.
   1687,        -32.5,           0.,          80.
   1688,        -32.5,           0.,          85.
   1689,        -32.5,           0.,          90.
   1690,        -32.5,           0.,          95.
   1691,       -33.75,           0.,           5.
   1692,       -33.75,           0.,          10.
   1693,       -33.75,           0.,          15.
   1694,       -33.75,           0.,          20.
   1695,       -33.75,           0.,          25.
   1696,       -33.75,           0.,          30.
   1697,       -33.75,           0.,          35.
   1698,       -33.75,           0.,          40.
   1699,       -33.75,           0.,          45.
   1700,       -33.75,           0.,          50.
   1701,       -33.75,           0.,          55.
   1702,       -33.75,           0.,          60.
   1703,       -33.75,           0.,          65.
   1704,       -33.75,           0.,          70.
   1705,       -33.75,           0.,          75.
   1706,       -33.75,           0.,          80.
   1707,       -33.75,           0.,          85.
   1708,       -33.75,           0.,          90.
   1709,       -33.75,           0.,          95.
   1710,       -16.25,  0.150000006,           5.
   1711,       -16.25,  0.150000006,          10.
   1712,       -16.25,  0.150000006,          15.
   1713,       -16.25,  0.150000006,          20.
   1714,       -16.25,  0.150000006,          25.
   1715,       -16.25,  0.150000006,          30.
   1716,       -16.25,  0.150000006,          35.
   1717,       -16.25,  0.150000006,          40.
   1718,       -16.25,  0.150000006,          45.
   1719,       -16.25,  0.150000006,          50.
   1720,       -16.25,  0.150000006,          55.
   1721,       -16.25,  0.150000006,          60.
   1722,       -16.25,  0.150000006,          65.
   1723,       -16.25,  0.150000006,          70.
   1724,       -16.25,  0.150000006,          75.
   1725,       -16.25,  0.150000006,          80.
   1726,       -16.25,  0.150000006,          85.
   1727,       -16.25,  0.150000006,          90.
   1728,       -16.25,  0.150000006,          95.
   1729,        -17.5,  0.150000006,           5.
   1730,        -17.5,  0.150000006,          10.
   1731,        -17.5,  0.150000006,          15.
   1732,        -17.5,  0.150000006,          20.
   1733,        -17.5,  0.150000006,          25.
   1734,        -17.5,  0.150000006,          30.
   1735,        -17.5,  0.150000006,          35.
   1736,        -17.5,  0.150000006,          40.
   1737,        -17.5,  0.150000006,          45.
   1738,        -17.5,  0.150000006,          50.
   1739,        -17.5,  0.150000006,          55.
   1740,        -17.5,  0.150000006,          60.
   1741,        -17.5,  0.150000006,          65.
   1742,        -17.5,  0.150000006,          70.
   1743,        -17.5,  0.150000006,          75.
   1744,        -17.5,  0.150000006,          80.
   1745,        -17.5,  0.150000006,          85.
   1746,        -17.5,  0.150000006,          90.
   1747,        -17.5,  0.150000006,          95.
   1748,       -18.75,  0.150000006,           5.
   1749,       -18.75,  0.150000006,          10.
   1750,       -18.75,  0.150000006,          15.
   1751,       -18.75,  0.150000006,          20.
   1752,       -18.75,  0.150000006,          25.
   1753,       -18.75,  0.150000006,          30.
   1754,       -18.75,  0.150000006,          35.
   1755,       -18.75,  0.150000006,          40.
   1756,       -18.75,  0.150000006,          45.
   1757,       -18.75,  0.150000006,          50.
   1758,       -18.75,  0.150000006,          55.
   1759,       -18.75,  0.150000006,          60.
   1760,       -18.75,  0.150000006,          65.
   1761,       -18.75,  0.150000006,          70.
   1762,       -18.75,  0.150000006,          75.
   1763,       -18.75,  0.150000006,          80.
   1764,       -18.75,  0.150000006,          85.
   1765,       -18.75,  0.150000006,          90.
   1766,       -18.75,  0.150000006,          95.
   1767,         -20.,  0.150000006,           5.
   1768,         -20.,  0.150000006,          10.
   1769,         -20.,  0.150000006,          15.
   1770,         -20.,  0.150000006,          20.
   1771,         -20.,  0.150000006,          25.
   1772,         -20.,  0.150000006,          30.
   1773,         -20.,  0.150000006,          35.
   1774,         -20.,  0.150000006,          40.
   1775,         -20.,  0.150000006,          45.
   1776,         -20.,  0.150000006,          50.
   1777,         -20.,  0.150000006,          55.
   1778,         -20.,  0.150000006,          60.
   1779,         -20.,  0.150000006,          65.
   1780,         -20.,  0.150000006,          70.
   1781,         -20.,  0.150000006,          75.
   1782,         -20.,  0.150000006,          80.
   1783,         -20.,  0.150000006,          85.
   1784,         -20.,  0.150000006,          90.
   1785,         -20.,  0.150000006,          95.
   1786,       -21.25,  0.150000006,           5.
   1787,       -21.25,  0.150000006,          10.
   1788,       -21.25,  0.150000006,          15.
   1789,       -21.25,  0.150000006,          20.
   1790,       -21.25,  0.150000006,          25.
   1791,       -21.25,  0.150000006,          30.
   1792,       -21.25,  0.150000006,          35.
   1793,       -21.25,  0.150000006,          40.
   1794,       -21.25,  0.150000006,          45.
   1795,       -21.25,  0.150000006,          50.
   1796,       -21.25,  0.150000006,          55.
   1797,       -21.25,  0.150000006,          60.
   1798,       -21.25,  0.150000006,          65.
   1799,       -21.25,  0.150000006,          70.
   1800,       -21.25,  0.150000006,          75.
   1801,       -21.25,  0.150000006,          80.
   1802,       -21.25,  0.150000006,          85.
   1803,       -21.25,  0.150000006,          90.
   1804,       -21.25,  0.150000006,          95.
   1805,        -22.5,  0.150000006,           5.
   1806,        -22.5,  0.150000006,          10.
   1807,        -22.5,  0.150000006,          15.
   1808,        -22.5,  0.150000006,          20.
   1809,        -22.5,  0.150000006,          25.
   1810,        -22.5,  0.150000006,          30.
   1811,        -22.5,  0.150000006,          35.
   1812,        -22.5,  0.150000006,          40.
   1813,        -22.5,  0.150000006,          45.
   1814,        -22.5,  0.150000006,          50.
   1815,        -22.5,  0.150000006,          55.
   1816,        -22.5,  0.150000006,          60.
   1817,        -22.5,  0.150000006,          65.
   1818,        -22.5,  0.150000006,          70.
   1819,        -22.5,  0.150000006,          75.
   1820,        -22.5,  0.150000006,          80.
   1821,        -22.5,  0.150000006,          85.
   1822,        -22.5,  0.150000006,          90.
   1823,        -22.5,  0.150000006,          95.
   1824,       -23.75,  0.150000006,           5.
   1825,       -23.75,  0.150000006,          10.
   1826,       -23.75,  0.150000006,          15.
   1827,       -23.75,  0.150000006,          20.
   1828,       -23.75,  0.150000006,          25.
   1829,       -23.75,  0.150000006,          30.
   1830,       -23.75,  0.150000006,          35.
   1831,       -23.75,  0.150000006,          40.
   1832,       -23.75,  0.150000006,          45.
   1833,       -23.75,  0.150000006,          50.
   1834,       -23.75,  0.150000006,          55.
   1835,       -23.75,  0.150000006,          60.
   1836,       -23.75,  0.150000006,          65.
   1837,       -23.75,  0.150000006,          70.
   1838,       -23.75,  0.150000006,          75.
   1839,       -23.75,  0.150000006,          80.
   1840,       -23.75,  0.150000006,          85.
   1841,       -23.75,  0.150000006,          90.
   1842,       -23.75,  0.150000006,          95.
   1843,         -25.,  0.150000006,           5.
   1844,         -25.,  0.150000006,          10.
   1845,         -25.,  0.150000006,          15.
   1846,         -25.,  0.150000006,          20.
   1847,         -25.,  0.150000006,          25.
   1848,         -25.,  0.150000006,          30.
   1849,         -25.,  0.150000006,          35.
   1850,         -25.,  0.150000006,          40.
   1851,         -25.,  0.150000006,          45.
   1852,         -25.,  0.150000006,          50.
   1853,         -25.,  0.150000006,          55.
   1854,         -25.,  0.150000006,          60.
   1855,         -25.,  0.150000006,          65.
   1856,         -25.,  0.150000006,          70.
   1857,         -25.,  0.150000006,          75.
   1858,         -25.,  0.150000006,          80.
   1859,         -25.,  0.150000006,          85.
   1860,         -25.,  0.150000006,          90.
   1861,         -25.,  0.150000006,          95.
   1862,       -26.25,  0.150000006,           5.
   1863,       -26.25,  0.150000006,          10.
   1864,       -26.25,  0.150000006,          15.
   1865,       -26.25,  0.150000006,          20.
   1866,       -26.25,  0.150000006,          25.
   1867,       -26.25,  0.150000006,          30.
   1868,       -26.25,  0.150000006,          35.
   1869,       -26.25,  0.150000006,          40.
   1870,       -26.25,  0.150000006,          45.
   1871,       -26.25,  0.150000006,          50.
   1872,       -26.25,  0.150000006,          55.
   1873,       -26.25,  0.150000006,          60.
   1874,       -26.25,  0.150000006,          65.
   1875,       -26.25,  0.150000006,          70.
   1876,       -26.25,  0.150000006,          75.
   1877,       -26.25,  0.150000006,          80.
   1878,       -26.25,  0.150000006,          85.
   1879,       -26.25,  0.150000006,          90.
   1880,       -26.25,  0.150000006,          95.
   1881,        -27.5,  0.150000006,           5.
   1882,        -27.5,  0.150000006,          10.
   1883,        -27.5,  0.150000006,          15.
   1884,        -27.5,  0.150000006,          20.
   1885,        -27.5,  0.150000006,          25.
   1886,        -27.5,  0.150000006,          30.
   1887,        -27.5,  0.150000006,          35.
   1888,        -27.5,  0.150000006,          40.
   1889,        -27.5,  0.150000006,          45.
   1890,        -27.5,  0.150000006,          50.
   1891,        -27.5,  0.150000006,          55.
   1892,        -27.5,  0.150000006,          60.
   1893,        -27.5,  0.150000006,          65.
   1894,        -27.5,  0.150000006,          70.
   1895,        -27.5,  0.150000006,          75.
   1896,        -27.5,  0.150000006,          80.
   1897,        -27.5,  0.150000006,          85.
   1898,        -27.5,  0.150000006,          90.
   1899,        -27.5,  0.150000006,          95.
   1900,       -28.75,  0.150000006,           5.
   1901,       -28.75,  0.150000006,          10.
   1902,       -28.75,  0.150000006,          15.
   1903,       -28.75,  0.150000006,          20.
   1904,       -28.75,  0.150000006,          25.
   1905,       -28.75,  0.150000006,          30.
   1906,       -28.75,  0.150000006,          35.
   1907,       -28.75,  0.150000006,          40.
   1908,       -28.75,  0.150000006,          45.
   1909,       -28.75,  0.150000006,          50.
   1910,       -28.75,  0.150000006,          55.
   1911,       -28.75,  0.150000006,          60.
   1912,       -28.75,  0.150000006,          65.
   1913,       -28.75,  0.150000006,          70.
   1914,       -28.75,  0.150000006,          75.
   1915,       -28.75,  0.150000006,          80.
   1916,       -28.75,  0.150000006,          85.
   1917,       -28.75,  0.150000006,          90.
   1918,       -28.75,  0.150000006,          95.
   1919,         -30.,  0.150000006,           5.
   1920,         -30.,  0.150000006,          10.
   1921,         -30.,  0.150000006,          15.
   1922,         -30.,  0.150000006,          20.
   1923,         -30.,  0.150000006,          25.
   1924,         -30.,  0.150000006,          30.
   1925,         -30.,  0.150000006,          35.
   1926,         -30.,  0.150000006,          40.
   1927,         -30.,  0.150000006,          45.
   1928,         -30.,  0.150000006,          50.
   1929,         -30.,  0.150000006,          55.
   1930,         -30.,  0.150000006,          60.
   1931,         -30.,  0.150000006,          65.
   1932,         -30.,  0.150000006,          70.
   1933,         -30.,  0.150000006,          75.
   1934,         -30.,  0.150000006,          80.
   1935,         -30.,  0.150000006,          85.
   1936,         -30.,  0.150000006,          90.
   1937,         -30.,  0.150000006,          95.
   1938,       -31.25,  0.150000006,           5.
   1939,       -31.25,  0.150000006,          10.
   1940,       -31.25,  0.150000006,          15.
   1941,       -31.25,  0.150000006,          20.
   1942,       -31.25,  0.150000006,          25.
   1943,       -31.25,  0.150000006,          30.
   1944,       -31.25,  0.150000006,          35.
   1945,       -31.25,  0.150000006,          40.
   1946,       -31.25,  0.150000006,          45.
   1947,       -31.25,  0.150000006,          50.
   1948,       -31.25,  0.150000006,          55.
   1949,       -31.25,  0.150000006,          60.
   1950,       -31.25,  0.150000006,          65.
   1951,       -31.25,  0.150000006,          70.
   1952,       -31.25,  0.150000006,          75.
   1953,       -31.25,  0.150000006,          80.
   1954,       -31.25,  0.150000006,          85.
   1955,       -31.25,  0.150000006,          90.
   1956,       -31.25,  0.150000006,          95.
   1957,        -32.5,  0.150000006,           5.
   1958,        -32.5,  0.150000006,          10.
   1959,        -32.5,  0.150000006,          15.
   1960,        -32.5,  0.150000006,          20.
   1961,        -32.5,  0.150000006,          25.
   1962,        -32.5,  0.150000006,          30.
   1963,        -32.5,  0.150000006,          35.
   1964,        -32.5,  0.150000006,          40.
   1965,        -32.5,  0.150000006,          45.
   1966,        -32.5,  0.150000006,          50.
   1967,        -32.5,  0.150000006,          55.
   1968,        -32.5,  0.150000006,          60.
   1969,        -32.5,  0.150000006,          65.
   1970,        -32.5,  0.150000006,          70.
   1971,        -32.5,  0.150000006,          75.
   1972,        -32.5,  0.150000006,          80.
   1973,        -32.5,  0.150000006,          85.
   1974,        -32.5,  0.150000006,          90.
   1975,        -32.5,  0.150000006,          95.
   1976,       -33.75,  0.150000006,           5.
   1977,       -33.75,  0.150000006,          10.
   1978,       -33.75,  0.150000006,          15.
   1979,       -33.75,  0.150000006,          20.
   1980,       -33.75,  0.150000006,          25.
   1981,       -33.75,  0.150000006,          30.
   1982,       -33.75,  0.150000006,          35.
   1983,       -33.75,  0.150000006,          40.
   1984,       -33.75,  0.150000006,          45.
   1985,       -33.75,  0.150000006,          50.
   1986,       -33.75,  0.150000006,          55.
   1987,       -33.75,  0.150000006,          60.
   1988,       -33.75,  0.150000006,          65.
   1989,       -33.75,  0.150000006,          70.
   1990,       -33.75,  0.150000006,          75.
   1991,       -33.75,  0.150000006,          80.
   1992,       -33.75,  0.150000006,          85.
   1993,       -33.75,  0.150000006,          90.
   1994,       -33.75,  0.150000006,          95.
   1995,       -16.25, 0.0299999993,           0.
   1996,        -17.5, 0.0299999993,           0.
   1997,       -18.75, 0.0299999993,           0.
   1998,         -20., 0.0299999993,           0.
   1999,       -21.25, 0.0299999993,           0.
   2000,        -22.5, 0.0299999993,           0.
   2001,       -23.75, 0.0299999993,           0.
   2002,         -25., 0.0299999993,           0.
   2003,       -26.25, 0.0299999993,           0.
   2004,        -27.5, 0.0299999993,           0.
   2005,       -28.75, 0.0299999993,           0.
   2006,         -30., 0.0299999993,           0.
   2007,       -31.25, 0.0299999993,           0.
   2008,        -32.5, 0.0299999993,           0.
   2009,       -33.75, 0.0299999993,           0.
   2010,       -16.25, 0.0599999987,           0.
   2011,        -17.5, 0.0599999987,           0.
   2012,       -18.75, 0.0599999987,           0.
   2013,         -20., 0.0599999987,           0.
   2014,       -21.25, 0.0599999987,           0.
   2015,        -22.5, 0.0599999987,           0.
   2016,       -23.75, 0.0599999987,           0.
   2017,         -25., 0.0599999987,           0.
   2018,       -26.25, 0.0599999987,           0.
   2019,        -27.5, 0.0599999987,           0.
   2020,       -28.75, 0.0599999987,           0.
   2021,         -30., 0.0599999987,           0.
   2022,       -31.25, 0.0599999987,           0.
   2023,        -32.5, 0.0599999987,           0.
   2024,       -33.75, 0.0599999987,           0.
   2025,       -16.25, 0.0900000036,           0.
   2026,        -17.5, 0.0900000036,           0.
   2027,       -18.75, 0.0900000036,           0.
   2028,         -20., 0.0900000036,           0.
   2029,       -21.25, 0.0900000036,           0.
   2030,        -22.5, 0.0900000036,           0.
   2031,       -23.75, 0.0900000036,           0.
   2032,         -25., 0.0900000036,           0.
   2033,       -26.25, 0.0900000036,           0.
   2034,        -27.5, 0.0900000036,           0.
   2035,       -28.75, 0.0900000036,           0.
   2036,         -30., 0.0900000036,           0.
   2037,       -31.25, 0.0900000036,           0.
   2038,        -32.5, 0.0900000036,           0.
   2039,       -33.75, 0.0900000036,           0.
   2040,       -16.25,  0.119999997,           0.
   2041,        -17.5,  0.119999997,           0.
   2042,       -18.75,  0.119999997,           0.
   2043,         -20.,  0.119999997,           0.
   2044,       -21.25,  0.119999997,           0.
   2045,        -22.5,  0.119999997,           0.
   2046,       -23.75,  0.119999997,           0.
   2047,         -25.,  0.119999997,           0.
   2048,       -26.25,  0.119999997,           0.
   2049,        -27.5,  0.119999997,           0.
   2050,       -28.75,  0.119999997,           0.
   2051,         -30.,  0.119999997,           0.
   2052,       -31.25,  0.119999997,           0.
   2053,        -32.5,  0.119999997,           0.
   2054,       -33.75,  0.119999997,           0.
   2055,       -16.25, 0.0299999993,         100.
   2056,        -17.5, 0.0299999993,         100.
   2057,       -18.75, 0.0299999993,         100.
   2058,         -20., 0.0299999993,         100.
   2059,       -21.25, 0.0299999993,         100.
   2060,        -22.5, 0.0299999993,         100.
   2061,       -23.75, 0.0299999993,         100.
   2062,         -25., 0.0299999993,         100.
   2063,       -26.25, 0.0299999993,         100.
   2064,        -27.5, 0.0299999993,         100.
   2065,       -28.75, 0.0299999993,         100.
   2066,         -30., 0.0299999993,         100.
   2067,       -31.25, 0.0299999993,         100.
   2068,        -32.5, 0.0299999993,         100.
   2069,       -33.75, 0.0299999993,         100.
   2070,       -16.25, 0.0599999987,         100.
   2071,        -17.5, 0.0599999987,         100.
   2072,       -18.75, 0.0599999987,         100.
   2073,         -20., 0.0599999987,         100.
   2074,       -21.25, 0.0599999987,         100.
   2075,        -22.5, 0.0599999987,         100.
   2076,       -23.75, 0.0599999987,         100.
   2077,         -25., 0.0599999987,         100.
   2078,       -26.25, 0.0599999987,         100.
   2079,        -27.5, 0.0599999987,         100.
   2080,       -28.75, 0.0599999987,         100.
   2081,         -30., 0.0599999987,         100.
   2082,       -31.25, 0.0599999987,         100.
   2083,        -32.5, 0.0599999987,         100.
   2084,       -33.75, 0.0599999987,         100.
   2085,       -16.25, 0.0900000036,         100.
   2086,        -17.5, 0.0900000036,         100.
   2087,       -18.75, 0.0900000036,         100.
   2088,         -20., 0.0900000036,         100.
   2089,       -21.25, 0.0900000036,         100.
   2090,        -22.5, 0.0900000036,         100.
   2091,       -23.75, 0.0900000036,         100.
   2092,         -25., 0.0900000036,         100.
   2093,       -26.25, 0.0900000036,         100.
   2094,        -27.5, 0.0900000036,         100.
   2095,       -28.75, 0.0900000036,         100.
   2096,         -30., 0.0900000036,         100.
   2097,       -31.25, 0.0900000036,         100.
   2098,        -32.5, 0.0900000036,         100.
   2099,       -33.75, 0.0900000036,         100.
   2100,       -16.25,  0.119999997,         100.
   2101,        -17.5,  0.119999997,         100.
   2102,       -18.75,  0.119999997,         100.
   2103,         -20.,  0.119999997,         100.
   2104,       -21.25,  0.119999997,         100.
   2105,        -22.5,  0.119999997,         100.
   2106,       -23.75,  0.119999997,         100.
   2107,         -25.,  0.119999997,         100.
   2108,       -26.25,  0.119999997,         100.
   2109,        -27.5,  0.119999997,         100.
   2110,       -28.75,  0.119999997,         100.
   2111,         -30.,  0.119999997,         100.
   2112,       -31.25,  0.119999997,         100.
   2113,        -32.5,  0.119999997,         100.
   2114,       -33.75,  0.119999997,         100.
   2115,         -35., 0.0299999993,           5.
   2116,         -35., 0.0299999993,          10.
   2117,         -35., 0.0299999993,          15.
   2118,         -35., 0.0299999993,          20.
   2119,         -35., 0.0299999993,          25.
   2120,         -35., 0.0299999993,          30.
   2121,         -35., 0.0299999993,          35.
   2122,         -35., 0.0299999993,          40.
   2123,         -35., 0.0299999993,          45.
   2124,         -35., 0.0299999993,          50.
   2125,         -35., 0.0299999993,          55.
   2126,         -35., 0.0299999993,          60.
   2127,         -35., 0.0299999993,          65.
   2128,         -35., 0.0299999993,          70.
   2129,         -35., 0.0299999993,          75.
   2130,         -35., 0.0299999993,          80.
   2131,         -35., 0.0299999993,          85.
   2132,         -35., 0.0299999993,          90.
   2133,         -35., 0.0299999993,          95.
   2134,         -35., 0.0599999987,           5.
   2135,         -35., 0.0599999987,          10.
   2136,         -35., 0.0599999987,          15.
   2137,         -35., 0.0599999987,          20.
   2138,         -35., 0.0599999987,          25.
   2139,         -35., 0.0599999987,          30.
   2140,         -35., 0.0599999987,          35.
   2141,         -35., 0.0599999987,          40.
   2142,         -35., 0.0599999987,          45.
   2143,         -35., 0.0599999987,          50.
   2144,         -35., 0.0599999987,          55.
   2145,         -35., 0.0599999987,          60.
   2146,         -35., 0.0599999987,          65.
   2147,         -35., 0.0599999987,          70.
   2148,         -35., 0.0599999987,          75.
   2149,         -35., 0.0599999987,          80.
   2150,         -35., 0.0599999987,          85.
   2151,         -35., 0.0599999987,          90.
   2152,         -35., 0.0599999987,          95.
   2153,         -35., 0.0900000036,           5.
   2154,         -35., 0.0900000036,          10.
   2155,         -35., 0.0900000036,          15.
   2156,         -35., 0.0900000036,          20.
   2157,         -35., 0.0900000036,          25.
   2158,         -35., 0.0900000036,          30.
   2159,         -35., 0.0900000036,          35.
   2160,         -35., 0.0900000036,          40.
   2161,         -35., 0.0900000036,          45.
   2162,         -35., 0.0900000036,          50.
   2163,         -35., 0.0900000036,          55.
   2164,         -35., 0.0900000036,          60.
   2165,         -35., 0.0900000036,          65.
   2166,         -35., 0.0900000036,          70.
   2167,         -35., 0.0900000036,          75.
   2168,         -35., 0.0900000036,          80.
   2169,         -35., 0.0900000036,          85.
   2170,         -35., 0.0900000036,          90.
   2171,         -35., 0.0900000036,          95.
   2172,         -35.,  0.119999997,           5.
   2173,         -35.,  0.119999997,          10.
   2174,         -35.,  0.119999997,          15.
   2175,         -35.,  0.119999997,          20.
   2176,         -35.,  0.119999997,          25.
   2177,         -35.,  0.119999997,          30.
   2178,         -35.,  0.119999997,          35.
   2179,         -35.,  0.119999997,          40.
   2180,         -35.,  0.119999997,          45.
   2181,         -35.,  0.119999997,          50.
   2182,         -35.,  0.119999997,          55.
   2183,         -35.,  0.119999997,          60.
   2184,         -35.,  0.119999997,          65.
   2185,         -35.,  0.119999997,          70.
   2186,         -35.,  0.119999997,          75.
   2187,         -35.,  0.119999997,          80.
   2188,         -35.,  0.119999997,          85.
   2189,         -35.,  0.119999997,          90.
   2190,         -35.,  0.119999997,          95.
   2191,        -36.5,           0.,           5.
   2192,        -36.5,           0.,          10.
   2193,        -36.5,           0.,          15.
   2194,        -36.5,           0.,          20.
   2195,        -36.5,           0.,          25.
   2196,        -36.5,           0.,          30.
   2197,        -36.5,           0.,          35.
   2198,        -36.5,           0.,          40.
   2199,        -36.5,           0.,          45.
   2200,        -36.5,           0.,          50.
   2201,        -36.5,           0.,          55.
   2202,        -36.5,           0.,          60.
   2203,        -36.5,           0.,          65.
   2204,        -36.5,           0.,          70.
   2205,        -36.5,           0.,          75.
   2206,        -36.5,           0.,          80.
   2207,        -36.5,           0.,          85.
   2208,        -36.5,           0.,          90.
   2209,        -36.5,           0.,          95.
   2210,         -38.,           0.,           5.
   2211,         -38.,           0.,          10.
   2212,         -38.,           0.,          15.
   2213,         -38.,           0.,          20.
   2214,         -38.,           0.,          25.
   2215,         -38.,           0.,          30.
   2216,         -38.,           0.,          35.
   2217,         -38.,           0.,          40.
   2218,         -38.,           0.,          45.
   2219,         -38.,           0.,          50.
   2220,         -38.,           0.,          55.
   2221,         -38.,           0.,          60.
   2222,         -38.,           0.,          65.
   2223,         -38.,           0.,          70.
   2224,         -38.,           0.,          75.
   2225,         -38.,           0.,          80.
   2226,         -38.,           0.,          85.
   2227,         -38.,           0.,          90.
   2228,         -38.,           0.,          95.
   2229,        -39.5,           0.,           5.
   2230,        -39.5,           0.,          10.
   2231,        -39.5,           0.,          15.
   2232,        -39.5,           0.,          20.
   2233,        -39.5,           0.,          25.
   2234,        -39.5,           0.,          30.
   2235,        -39.5,           0.,          35.
   2236,        -39.5,           0.,          40.
   2237,        -39.5,           0.,          45.
   2238,        -39.5,           0.,          50.
   2239,        -39.5,           0.,          55.
   2240,        -39.5,           0.,          60.
   2241,        -39.5,           0.,          65.
   2242,        -39.5,           0.,          70.
   2243,        -39.5,           0.,          75.
   2244,        -39.5,           0.,          80.
   2245,        -39.5,           0.,          85.
   2246,        -39.5,           0.,          90.
   2247,        -39.5,           0.,          95.
   2248,         -41.,           0.,           5.
   2249,         -41.,           0.,          10.
   2250,         -41.,           0.,          15.
   2251,         -41.,           0.,          20.
   2252,         -41.,           0.,          25.
   2253,         -41.,           0.,          30.
   2254,         -41.,           0.,          35.
   2255,         -41.,           0.,          40.
   2256,         -41.,           0.,          45.
   2257,         -41.,           0.,          50.
   2258,         -41.,           0.,          55.
   2259,         -41.,           0.,          60.
   2260,         -41.,           0.,          65.
   2261,         -41.,           0.,          70.
   2262,         -41.,           0.,          75.
   2263,         -41.,           0.,          80.
   2264,         -41.,           0.,          85.
   2265,         -41.,           0.,          90.
   2266,         -41.,           0.,          95.
   2267,        -42.5,           0.,           5.
   2268,        -42.5,           0.,          10.
   2269,        -42.5,           0.,          15.
   2270,        -42.5,           0.,          20.
   2271,        -42.5,           0.,          25.
   2272,        -42.5,           0.,          30.
   2273,        -42.5,           0.,          35.
   2274,        -42.5,           0.,          40.
   2275,        -42.5,           0.,          45.
   2276,        -42.5,           0.,          50.
   2277,        -42.5,           0.,          55.
   2278,        -42.5,           0.,          60.
   2279,        -42.5,           0.,          65.
   2280,        -42.5,           0.,          70.
   2281,        -42.5,           0.,          75.
   2282,        -42.5,           0.,          80.
   2283,        -42.5,           0.,          85.
   2284,        -42.5,           0.,          90.
   2285,        -42.5,           0.,          95.
   2286,         -44.,           0.,           5.
   2287,         -44.,           0.,          10.
   2288,         -44.,           0.,          15.
   2289,         -44.,           0.,          20.
   2290,         -44.,           0.,          25.
   2291,         -44.,           0.,          30.
   2292,         -44.,           0.,          35.
   2293,         -44.,           0.,          40.
   2294,         -44.,           0.,          45.
   2295,         -44.,           0.,          50.
   2296,         -44.,           0.,          55.
   2297,         -44.,           0.,          60.
   2298,         -44.,           0.,          65.
   2299,         -44.,           0.,          70.
   2300,         -44.,           0.,          75.
   2301,         -44.,           0.,          80.
   2302,         -44.,           0.,          85.
   2303,         -44.,           0.,          90.
   2304,         -44.,           0.,          95.
   2305,        -45.5,           0.,           5.
   2306,        -45.5,           0.,          10.
   2307,        -45.5,           0.,          15.
   2308,        -45.5,           0.,          20.
   2309,        -45.5,           0.,          25.
   2310,        -45.5,           0.,          30.
   2311,        -45.5,           0.,          35.
   2312,        -45.5,           0.,          40.
   2313,        -45.5,           0.,          45.
   2314,        -45.5,           0.,          50.
   2315,        -45.5,           0.,          55.
   2316,        -45.5,           0.,          60.
   2317,        -45.5,           0.,          65.
   2318,        -45.5,           0.,          70.
   2319,        -45.5,           0.,          75.
   2320,        -45.5,           0.,          80.
   2321,        -45.5,           0.,          85.
   2322,        -45.5,           0.,          90.
   2323,        -45.5,           0.,          95.
   2324,         -47.,           0.,           5.
   2325,         -47.,           0.,          10.
   2326,         -47.,           0.,          15.
   2327,         -47.,           0.,          20.
   2328,         -47.,           0.,          25.
   2329,         -47.,           0.,          30.
   2330,         -47.,           0.,          35.
   2331,         -47.,           0.,          40.
   2332,         -47.,           0.,          45.
   2333,         -47.,           0.,          50.
   2334,         -47.,           0.,          55.
   2335,         -47.,           0.,          60.
   2336,         -47.,           0.,          65.
   2337,         -47.,           0.,          70.
   2338,         -47.,           0.,          75.
   2339,         -47.,           0.,          80.
   2340,         -47.,           0.,          85.
   2341,         -47.,           0.,          90.
   2342,         -47.,           0.,          95.
   2343,        -48.5,           0.,           5.
   2344,        -48.5,           0.,          10.
   2345,        -48.5,           0.,          15.
   2346,        -48.5,           0.,          20.
   2347,        -48.5,           0.,          25.
   2348,        -48.5,           0.,          30.
   2349,        -48.5,           0.,          35.
   2350,        -48.5,           0.,          40.
   2351,        -48.5,           0.,          45.
   2352,        -48.5,           0.,          50.
   2353,        -48.5,           0.,          55.
   2354,        -48.5,           0.,          60.
   2355,        -48.5,           0.,          65.
   2356,        -48.5,           0.,          70.
   2357,        -48.5,           0.,          75.
   2358,        -48.5,           0.,          80.
   2359,        -48.5,           0.,          85.
   2360,        -48.5,           0.,          90.
   2361,        -48.5,           0.,          95.
   2362,        -36.5,  0.150000006,           5.
   2363,        -36.5,  0.150000006,          10.
   2364,        -36.5,  0.150000006,          15.
   2365,        -36.5,  0.150000006,          20.
   2366,        -36.5,  0.150000006,          25.
   2367,        -36.5,  0.150000006,          30.
   2368,        -36.5,  0.150000006,          35.
   2369,        -36.5,  0.150000006,          40.
   2370,        -36.5,  0.150000006,          45.
   2371,        -36.5,  0.150000006,          50.
   2372,        -36.5,  0.150000006,          55.
   2373,        -36.5,  0.150000006,          60.
   2374,        -36.5,  0.150000006,          65.
   2375,        -36.5,  0.150000006,          70.
   2376,        -36.5,  0.150000006,          75.
   2377,        -36.5,  0.150000006,          80.
   2378,        -36.5,  0.150000006,          85.
   2379,        -36.5,  0.150000006,          90.
   2380,        -36.5,  0.150000006,          95.
   2381,         -38.,  0.150000006,           5.
   2382,         -38.,  0.150000006,          10.
   2383,         -38.,  0.150000006,          15.
   2384,         -38.,  0.150000006,          20.
   2385,         -38.,  0.150000006,          25.
   2386,         -38.,  0.150000006,          30.
   2387,         -38.,  0.150000006,          35.
   2388,         -38.,  0.150000006,          40.
   2389,         -38.,  0.150000006,          45.
   2390,         -38.,  0.150000006,          50.
   2391,         -38.,  0.150000006,          55.
   2392,         -38.,  0.150000006,          60.
   2393,         -38.,  0.150000006,          65.
   2394,         -38.,  0.150000006,          70.
   2395,         -38.,  0.150000006,          75.
   2396,         -38.,  0.150000006,          80.
   2397,         -38.,  0.150000006,          85.
   2398,         -38.,  0.150000006,          90.
   2399,         -38.,  0.150000006,          95.
   2400,        -39.5,  0.150000006,           5.
   2401,        -39.5,  0.150000006,          10.
   2402,        -39.5,  0.150000006,          15.
   2403,        -39.5,  0.150000006,          20.
   2404,        -39.5,  0.150000006,          25.
   2405,        -39.5,  0.150000006,          30.
   2406,        -39.5,  0.150000006,          35.
   2407,        -39.5,  0.150000006,          40.
   2408,        -39.5,  0.150000006,          45.
   2409,        -39.5,  0.150000006,          50.
   2410,        -39.5,  0.150000006,          55.
   2411,        -39.5,  0.150000006,          60.
   2412,        -39.5,  0.150000006,          65.
   2413,        -39.5,  0.150000006,          70.
   2414,        -39.5,  0.150000006,          75.
   2415,        -39.5,  0.150000006,          80.
   2416,        -39.5,  0.150000006,          85.
   2417,        -39.5,  0.150000006,          90.
   2418,        -39.5,  0.150000006,          95.
   2419,         -41.,  0.150000006,           5.
   2420,         -41.,  0.150000006,          10.
   2421,         -41.,  0.150000006,          15.
   2422,         -41.,  0.150000006,          20.
   2423,         -41.,  0.150000006,          25.
   2424,         -41.,  0.150000006,          30.
   2425,         -41.,  0.150000006,          35.
   2426,         -41.,  0.150000006,          40.
   2427,         -41.,  0.150000006,          45.
   2428,         -41.,  0.150000006,          50.
   2429,         -41.,  0.150000006,          55.
   2430,         -41.,  0.150000006,          60.
   2431,         -41.,  0.150000006,          65.
   2432,         -41.,  0.150000006,          70.
   2433,         -41.,  0.150000006,          75.
   2434,         -41.,  0.150000006,          80.
   2435,         -41.,  0.150000006,          85.
   2436,         -41.,  0.150000006,          90.
   2437,         -41.,  0.150000006,          95.
   2438,        -42.5,  0.150000006,           5.
   2439,        -42.5,  0.150000006,          10.
   2440,        -42.5,  0.150000006,          15.
   2441,        -42.5,  0.150000006,          20.
   2442,        -42.5,  0.150000006,          25.
   2443,        -42.5,  0.150000006,          30.
   2444,        -42.5,  0.150000006,          35.
   2445,        -42.5,  0.150000006,          40.
   2446,        -42.5,  0.150000006,          45.
   2447,        -42.5,  0.150000006,          50.
   2448,        -42.5,  0.150000006,          55.
   2449,        -42.5,  0.150000006,          60.
   2450,        -42.5,  0.150000006,          65.
   2451,        -42.5,  0.150000006,          70.
   2452,        -42.5,  0.150000006,          75.
   2453,        -42.5,  0.150000006,          80.
   2454,        -42.5,  0.150000006,          85.
   2455,        -42.5,  0.150000006,          90.
   2456,        -42.5,  0.150000006,          95.
   2457,         -44.,  0.150000006,           5.
   2458,         -44.,  0.150000006,          10.
   2459,         -44.,  0.150000006,          15.
   2460,         -44.,  0.150000006,          20.
   2461,         -44.,  0.150000006,          25.
   2462,         -44.,  0.150000006,          30.
   2463,         -44.,  0.150000006,          35.
   2464,         -44.,  0.150000006,          40.
   2465,         -44.,  0.150000006,          45.
   2466,         -44.,  0.150000006,          50.
   2467,         -44.,  0.150000006,          55.
   2468,         -44.,  0.150000006,          60.
   2469,         -44.,  0.150000006,          65.
   2470,         -44.,  0.150000006,          70.
   2471,         -44.,  0.150000006,          75.
   2472,         -44.,  0.150000006,          80.
   2473,         -44.,  0.150000006,          85.
   2474,         -44.,  0.150000006,          90.
   2475,         -44.,  0.150000006,          95.
   2476,        -45.5,  0.150000006,           5.
   2477,        -45.5,  0.150000006,          10.
   2478,        -45.5,  0.150000006,          15.
   2479,        -45.5,  0.150000006,          20.
   2480,        -45.5,  0.150000006,          25.
   2481,        -45.5,  0.150000006,          30.
   2482,        -45.5,  0.150000006,          35.
   2483,        -45.5,  0.150000006,          40.
   2484,        -45.5,  0.150000006,          45.
   2485,        -45.5,  0.150000006,          50.
   2486,        -45.5,  0.150000006,          55.
   2487,        -45.5,  0.150000006,          60.
   2488,        -45.5,  0.150000006,          65.
   2489,        -45.5,  0.150000006,          70.
   2490,        -45.5,  0.150000006,          75.
   2491,        -45.5,  0.150000006,          80.
   2492,        -45.5,  0.150000006,          85.
   2493,        -45.5,  0.150000006,          90.
   2494,        -45.5,  0.150000006,          95.
   2495,         -47.,  0.150000006,           5.
   2496,         -47.,  0.150000006,          10.
   2497,         -47.,  0.150000006,          15.
   2498,         -47.,  0.150000006,          20.
   2499,         -47.,  0.150000006,          25.
   2500,         -47.,  0.150000006,          30.
   2501,         -47.,  0.150000006,          35.
   2502,         -47.,  0.150000006,          40.
   2503,         -47.,  0.150000006,          45.
   2504,         -47.,  0.150000006,          50.
   2505,         -47.,  0.150000006,          55.
   2506,         -47.,  0.150000006,          60.
   2507,         -47.,  0.150000006,          65.
   2508,         -47.,  0.150000006,          70.
   2509,         -47.,  0.150000006,          75.
   2510,         -47.,  0.150000006,          80.
   2511,         -47.,  0.150000006,          85.
   2512,         -47.,  0.150000006,          90.
   2513,         -47.,  0.150000006,          95.
   2514,        -48.5,  0.150000006,           5.
   2515,        -48.5,  0.150000006,          10.
   2516,        -48.5,  0.150000006,          15.
   2517,        -48.5,  0.150000006,          20.
   2518,        -48.5,  0.150000006,          25.
   2519,        -48.5,  0.150000006,          30.
   2520,        -48.5,  0.150000006,          35.
   2521,        -48.5,  0.150000006,          40.
   2522,        -48.5,  0.150000006,          45.
   2523,        -48.5,  0.150000006,          50.
   2524,        -48.5,  0.150000006,          55.
   2525,        -48.5,  0.150000006,          60.
   2526,        -48.5,  0.150000006,          65.
   2527,        -48.5,  0.150000006,          70.
   2528,        -48.5,  0.150000006,          75.
   2529,        -48.5,  0.150000006,          80.
   2530,        -48.5,  0.150000006,          85.
   2531,        -48.5,  0.150000006,          90.
   2532,        -48.5,  0.150000006,          95.
   2533,        -36.5, 0.0299999993,           0.
   2534,         -38., 0.0299999993,           0.
   2535,        -39.5, 0.0299999993,           0.
   2536,         -41., 0.0299999993,           0.
   2537,        -42.5, 0.0299999993,           0.
   2538,         -44., 0.0299999993,           0.
   2539,        -45.5, 0.0299999993,           0.
   2540,         -47., 0.0299999993,           0.
   2541,        -48.5, 0.0299999993,           0.
   2542,        -36.5, 0.0599999987,           0.
   2543,         -38., 0.0599999987,           0.
   2544,        -39.5, 0.0599999987,           0.
   2545,         -41., 0.0599999987,           0.
   2546,        -42.5, 0.0599999987,           0.
   2547,         -44., 0.0599999987,           0.
   2548,        -45.5, 0.0599999987,           0.
   2549,         -47., 0.0599999987,           0.
   2550,        -48.5, 0.0599999987,           0.
   2551,        -36.5, 0.0900000036,           0.
   2552,         -38., 0.0900000036,           0.
   2553,        -39.5, 0.0900000036,           0.
   2554,         -41., 0.0900000036,           0.
   2555,        -42.5, 0.0900000036,           0.
   2556,         -44., 0.0900000036,           0.
   2557,        -45.5, 0.0900000036,           0.
   2558,         -47., 0.0900000036,           0.
   2559,        -48.5, 0.0900000036,           0.
   2560,        -36.5,  0.119999997,           0.
   2561,         -38.,  0.119999997,           0.
   2562,        -39.5,  0.119999997,           0.
   2563,         -41.,  0.119999997,           0.
   2564,        -42.5,  0.119999997,           0.
   2565,         -44.,  0.119999997,           0.
   2566,        -45.5,  0.119999997,           0.
   2567,         -47.,  0.119999997,           0.
   2568,        -48.5,  0.119999997,           0.
   2569,        -36.5, 0.0299999993,         100.
   2570,         -38., 0.0299999993,         100.
   2571,        -39.5, 0.0299999993,         100.
   2572,         -41., 0.0299999993,         100.
   2573,        -42.5, 0.0299999993,         100.
   2574,         -44., 0.0299999993,         100.
   2575,        -45.5, 0.0299999993,         100.
   2576,         -47., 0.0299999993,         100.
   2577,        -48.5, 0.0299999993,         100.
   2578,        -36.5, 0.0599999987,         100.
   2579,         -38., 0.0599999987,         100.
   2580,        -39.5, 0.0599999987,         100.
   2581,         -41., 0.0599999987,         100.
   2582,        -42.5, 0.0599999987,         100.
   2583,         -44., 0.0599999987,         100.
   2584,        -45.5, 0.0599999987,         100.
   2585,         -47., 0.0599999987,         100.
   2586,        -48.5, 0.0599999987,         100.
   2587,        -36.5, 0.0900000036,         100.
   2588,         -38., 0.0900000036,         100.
   2589,        -39.5, 0.0900000036,         100.
   2590,         -41., 0.0900000036,         100.
   2591,        -42.5, 0.0900000036,         100.
   2592,         -44., 0.0900000036,         100.
   2593,        -45.5, 0.0900000036,         100.
   2594,         -47., 0.0900000036,         100.
   2595,        -48.5, 0.0900000036,         100.
   2596,        -36.5,  0.119999997,         100.
   2597,         -38.,  0.119999997,         100.
   2598,        -39.5,  0.119999997,         100.
   2599,         -41.,  0.119999997,         100.
   2600,        -42.5,  0.119999997,         100.
   2601,         -44.,  0.119999997,         100.
   2602,        -45.5,  0.119999997,         100.
   2603,         -47.,  0.119999997,         100.
   2604,        -48.5,  0.119999997,         100.
   2605,         -50., 0.0299999993,           5.
   2606,         -50., 0.0299999993,          10.
   2607,         -50., 0.0299999993,          15.
   2608,         -50., 0.0299999993,          20.
   2609,         -50., 0.0299999993,          25.
   2610,         -50., 0.0299999993,          30.
   2611,         -50., 0.0299999993,          35.
   2612,         -50., 0.0299999993,          40.
   2613,         -50., 0.0299999993,          45.
   2614,         -50., 0.0299999993,          50.
   2615,         -50., 0.0299999993,          55.
   2616,         -50., 0.0299999993,          60.
   2617,         -50., 0.0299999993,          65.
   2618,         -50., 0.0299999993,          70.
   2619,         -50., 0.0299999993,          75.
   2620,         -50., 0.0299999993,          80.
   2621,         -50., 0.0299999993,          85.
   2622,         -50., 0.0299999993,          90.
   2623,         -50., 0.0299999993,          95.
   2624,         -50., 0.0599999987,           5.
   2625,         -50., 0.0599999987,          10.
   2626,         -50., 0.0599999987,          15.
   2627,         -50., 0.0599999987,          20.
   2628,         -50., 0.0599999987,          25.
   2629,         -50., 0.0599999987,          30.
   2630,         -50., 0.0599999987,          35.
   2631,         -50., 0.0599999987,          40.
   2632,         -50., 0.0599999987,          45.
   2633,         -50., 0.0599999987,          50.
   2634,         -50., 0.0599999987,          55.
   2635,         -50., 0.0599999987,          60.
   2636,         -50., 0.0599999987,          65.
   2637,         -50., 0.0599999987,          70.
   2638,         -50., 0.0599999987,          75.
   2639,         -50., 0.0599999987,          80.
   2640,         -50., 0.0599999987,          85.
   2641,         -50., 0.0599999987,          90.
   2642,         -50., 0.0599999987,          95.
   2643,         -50., 0.0900000036,           5.
   2644,         -50., 0.0900000036,          10.
   2645,         -50., 0.0900000036,          15.
   2646,         -50., 0.0900000036,          20.
   2647,         -50., 0.0900000036,          25.
   2648,         -50., 0.0900000036,          30.
   2649,         -50., 0.0900000036,          35.
   2650,         -50., 0.0900000036,          40.
   2651,         -50., 0.0900000036,          45.
   2652,         -50., 0.0900000036,          50.
   2653,         -50., 0.0900000036,          55.
   2654,         -50., 0.0900000036,          60.
   2655,         -50., 0.0900000036,          65.
   2656,         -50., 0.0900000036,          70.
   2657,         -50., 0.0900000036,          75.
   2658,         -50., 0.0900000036,          80.
   2659,         -50., 0.0900000036,          85.
   2660,         -50., 0.0900000036,          90.
   2661,         -50., 0.0900000036,          95.
   2662,         -50.,  0.119999997,           5.
   2663,         -50.,  0.119999997,          10.
   2664,         -50.,  0.119999997,          15.
   2665,         -50.,  0.119999997,          20.
   2666,         -50.,  0.119999997,          25.
   2667,         -50.,  0.119999997,          30.
   2668,         -50.,  0.119999997,          35.
   2669,         -50.,  0.119999997,          40.
   2670,         -50.,  0.119999997,          45.
   2671,         -50.,  0.119999997,          50.
   2672,         -50.,  0.119999997,          55.
   2673,         -50.,  0.119999997,          60.
   2674,         -50.,  0.119999997,          65.
   2675,         -50.,  0.119999997,          70.
   2676,         -50.,  0.119999997,          75.
   2677,         -50.,  0.119999997,          80.
   2678,         -50.,  0.119999997,          85.
   2679,         -50.,  0.119999997,          90.
   2680,         -50.,  0.119999997,          95.
   2681,           0.,  0.119999997,          95.
   2682,           0., 0.0900000036,          95.
   2683,           0., 0.0599999987,          95.
   2684,           0., 0.0299999993,          95.
   2685,           0.,  0.119999997,          90.
   2686,           0., 0.0900000036,          90.
   2687,           0., 0.0599999987,          90.
   2688,           0., 0.0299999993,          90.
   2689,           0.,  0.119999997,          85.
   2690,           0., 0.0900000036,          85.
   2691,           0., 0.0599999987,          85.
   2692,           0., 0.0299999993,          85.
   2693,           0.,  0.119999997,          80.
   2694,           0., 0.0900000036,          80.
   2695,           0., 0.0599999987,          80.
   2696,           0., 0.0299999993,          80.
   2697,           0.,  0.119999997,          75.
   2698,           0., 0.0900000036,          75.
   2699,           0., 0.0599999987,          75.
   2700,           0., 0.0299999993,          75.
   2701,           0.,  0.119999997,          70.
   2702,           0., 0.0900000036,          70.
   2703,           0., 0.0599999987,          70.
   2704,           0., 0.0299999993,          70.
   2705,           0.,  0.119999997,          65.
   2706,           0., 0.0900000036,          65.
   2707,           0., 0.0599999987,          65.
   2708,           0., 0.0299999993,          65.
   2709,           0.,  0.119999997,          60.
   2710,           0., 0.0900000036,          60.
   2711,           0., 0.0599999987,          60.
   2712,           0., 0.0299999993,          60.
   2713,           0.,  0.119999997,          55.
   2714,           0., 0.0900000036,          55.
   2715,           0., 0.0599999987,          55.
   2716,           0., 0.0299999993,          55.
   2717,           0.,  0.119999997,          50.
   2718,           0., 0.0900000036,          50.
   2719,           0., 0.0599999987,          50.
   2720,           0., 0.0299999993,          50.
   2721,           0.,  0.119999997,          45.
   2722,           0., 0.0900000036,          45.
   2723,           0., 0.0599999987,          45.
   2724,           0., 0.0299999993,          45.
   2725,           0.,  0.119999997,          40.
   2726,           0., 0.0900000036,          40.
   2727,           0., 0.0599999987,          40.
   2728,           0., 0.0299999993,          40.
   2729,           0.,  0.119999997,          35.
   2730,           0., 0.0900000036,          35.
   2731,           0., 0.0599999987,          35.
   2732,           0., 0.0299999993,          35.
   2733,           0.,  0.119999997,          30.
   2734,           0., 0.0900000036,          30.
   2735,           0., 0.0599999987,          30.
   2736,           0., 0.0299999993,          30.
   2737,           0.,  0.119999997,          25.
   2738,           0., 0.0900000036,          25.
   2739,           0., 0.0599999987,          25.
   2740,           0., 0.0299999993,          25.
   2741,           0.,  0.119999997,          20.
   2742,           0., 0.0900000036,          20.
   2743,           0., 0.0599999987,          20.
   2744,           0., 0.0299999993,          20.
   2745,           0.,  0.119999997,          15.
   2746,           0., 0.0900000036,          15.
   2747,           0., 0.0599999987,          15.
   2748,           0., 0.0299999993,          15.
   2749,           0.,  0.119999997,          10.
   2750,           0., 0.0900000036,          10.
   2751,           0., 0.0599999987,          10.
   2752,           0., 0.0299999993,          10.
   2753,           0.,  0.119999997,           5.
   2754,           0., 0.0900000036,           5.
   2755,           0., 0.0599999987,           5.
   2756,           0., 0.0299999993,           5.
   2757,  -1.79999995,  0.119999997,          95.
   2758,  -1.79999995,  0.119999997,          90.
   2759,  -1.79999995,  0.119999997,          85.
   2760,  -1.79999995,  0.119999997,          80.
   2761,  -1.79999995,  0.119999997,          75.
   2762,  -1.79999995,  0.119999997,          70.
   2763,  -1.79999995,  0.119999997,          65.
   2764,  -1.79999995,  0.119999997,          60.
   2765,  -1.79999995,  0.119999997,          55.
   2766,  -1.79999995,  0.119999997,          50.
   2767,  -1.79999995,  0.119999997,          45.
   2768,  -1.79999995,  0.119999997,          40.
   2769,  -1.79999995,  0.119999997,          35.
   2770,  -1.79999995,  0.119999997,          30.
   2771,  -1.79999995,  0.119999997,          25.
   2772,  -1.79999995,  0.119999997,          20.
   2773,  -1.79999995,  0.119999997,          15.
   2774,  -1.79999995,  0.119999997,          10.
   2775,  -1.79999995,  0.119999997,           5.
   2776,   -2.5999999,  0.119999997,          95.
   2777,   -2.5999999,  0.119999997,          90.
   2778,   -2.5999999,  0.119999997,          85.
   2779,   -2.5999999,  0.119999997,          80.
   2780,   -2.5999999,  0.119999997,          75.
   2781,   -2.5999999,  0.119999997,          70.
   2782,   -2.5999999,  0.119999997,          65.
   2783,   -2.5999999,  0.119999997,          60.
   2784,   -2.5999999,  0.119999997,          55.
   2785,   -2.5999999,  0.119999997,          50.
   2786,   -2.5999999,  0.119999997,          45.
   2787,   -2.5999999,  0.119999997,          40.
   2788,   -2.5999999,  0.119999997,          35.
   2789,   -2.5999999,  0.119999997,          30.
   2790,   -2.5999999,  0.119999997,          25.
   2791,   -2.5999999,  0.119999997,          20.
   2792,   -2.5999999,  0.119999997,          15.
   2793,   -2.5999999,  0.119999997,          10.
   2794,   -2.5999999,  0.119999997,           5.
   2795,   -3.4000001,  0.119999997,          95.
   2796,   -3.4000001,  0.119999997,          90.
   2797,   -3.4000001,  0.119999997,          85.
   2798,   -3.4000001,  0.119999997,          80.
   2799,   -3.4000001,  0.119999997,          75.
   2800,   -3.4000001,  0.119999997,          70.
   2801,   -3.4000001,  0.119999997,          65.
   2802,   -3.4000001,  0.119999997,          60.
   2803,   -3.4000001,  0.119999997,          55.
   2804,   -3.4000001,  0.119999997,          50.
   2805,   -3.4000001,  0.119999997,          45.
   2806,   -3.4000001,  0.119999997,          40.
   2807,   -3.4000001,  0.119999997,          35.
   2808,   -3.4000001,  0.119999997,          30.
   2809,   -3.4000001,  0.119999997,          25.
   2810,   -3.4000001,  0.119999997,          20.
   2811,   -3.4000001,  0.119999997,          15.
   2812,   -3.4000001,  0.119999997,          10.
   2813,   -3.4000001,  0.119999997,           5.
   2814,  -4.19999981,  0.119999997,          95.
   2815,  -4.19999981,  0.119999997,          90.
   2816,  -4.19999981,  0.119999997,          85.
   2817,  -4.19999981,  0.119999997,          80.
   2818,  -4.19999981,  0.119999997,          75.
   2819,  -4.19999981,  0.119999997,          70.
   2820,  -4.19999981,  0.119999997,          65.
   2821,  -4.19999981,  0.119999997,          60.
   2822,  -4.19999981,  0.119999997,          55.
   2823,  -4.19999981,  0.119999997,          50.
   2824,  -4.19999981,  0.119999997,          45.
   2825,  -4.19999981,  0.119999997,          40.
   2826,  -4.19999981,  0.119999997,          35.
   2827,  -4.19999981,  0.119999997,          30.
   2828,  -4.19999981,  0.119999997,          25.
   2829,  -4.19999981,  0.119999997,          20.
   2830,  -4.19999981,  0.119999997,          15.
   2831,  -4.19999981,  0.119999997,          10.
   2832,  -4.19999981,  0.119999997,           5.
   2833,  -1.79999995, 0.0900000036,          95.
   2834,  -1.79999995, 0.0900000036,          90.
   2835,  -1.79999995, 0.0900000036,          85.
   2836,  -1.79999995, 0.0900000036,          80.
   2837,  -1.79999995, 0.0900000036,          75.
   2838,  -1.79999995, 0.0900000036,          70.
   2839,  -1.79999995, 0.0900000036,          65.
   2840,  -1.79999995, 0.0900000036,          60.
   2841,  -1.79999995, 0.0900000036,          55.
   2842,  -1.79999995, 0.0900000036,          50.
   2843,  -1.79999995, 0.0900000036,          45.
   2844,  -1.79999995, 0.0900000036,          40.
   2845,  -1.79999995, 0.0900000036,          35.
   2846,  -1.79999995, 0.0900000036,          30.
   2847,  -1.79999995, 0.0900000036,          25.
   2848,  -1.79999995, 0.0900000036,          20.
   2849,  -1.79999995, 0.0900000036,          15.
   2850,  -1.79999995, 0.0900000036,          10.
   2851,  -1.79999995, 0.0900000036,           5.
   2852,   -2.5999999, 0.0900000036,          95.
   2853,   -2.5999999, 0.0900000036,          90.
   2854,   -2.5999999, 0.0900000036,          85.
   2855,   -2.5999999, 0.0900000036,          80.
   2856,   -2.5999999, 0.0900000036,          75.
   2857,   -2.5999999, 0.0900000036,          70.
   2858,   -2.5999999, 0.0900000036,          65.
   2859,   -2.5999999, 0.0900000036,          60.
   2860,   -2.5999999, 0.0900000036,          55.
   2861,   -2.5999999, 0.0900000036,          50.
   2862,   -2.5999999, 0.0900000036,          45.
   2863,   -2.5999999, 0.0900000036,          40.
   2864,   -2.5999999, 0.0900000036,          35.
   2865,   -2.5999999, 0.0900000036,          30.
   2866,   -2.5999999, 0.0900000036,          25.
   2867,   -2.5999999, 0.0900000036,          20.
   2868,   -2.5999999, 0.0900000036,          15.
   2869,   -2.5999999, 0.0900000036,          10.
   2870,   -2.5999999, 0.0900000036,           5.
   2871,   -3.4000001, 0.0900000036,          95.
   2872,   -3.4000001, 0.0900000036,          90.
   2873,   -3.4000001, 0.0900000036,          85.
   2874,   -3.4000001, 0.0900000036,          80.
   2875,   -3.4000001, 0.0900000036,          75.
   2876,   -3.4000001, 0.0900000036,          70.
   2877,   -3.4000001, 0.0900000036,          65.
   2878,   -3.4000001, 0.0900000036,          60.
   2879,   -3.4000001, 0.0900000036,          55.
   2880,   -3.4000001, 0.0900000036,          50.
   2881,   -3.4000001, 0.0900000036,          45.
   2882,   -3.4000001, 0.0900000036,          40.
   2883,   -3.4000001, 0.0900000036,          35.
   2884,   -3.4000001, 0.0900000036,          30.
   2885,   -3.4000001, 0.0900000036,          25.
   2886,   -3.4000001, 0.0900000036,          20.
   2887,   -3.4000001, 0.0900000036,          15.
   2888,   -3.4000001, 0.0900000036,          10.
   2889,   -3.4000001, 0.0900000036,           5.
   2890,  -4.19999981, 0.0900000036,          95.
   2891,  -4.19999981, 0.0900000036,          90.
   2892,  -4.19999981, 0.0900000036,          85.
   2893,  -4.19999981, 0.0900000036,          80.
   2894,  -4.19999981, 0.0900000036,          75.
   2895,  -4.19999981, 0.0900000036,          70.
   2896,  -4.19999981, 0.0900000036,          65.
   2897,  -4.19999981, 0.0900000036,          60.
   2898,  -4.19999981, 0.0900000036,          55.
   2899,  -4.19999981, 0.0900000036,          50.
   2900,  -4.19999981, 0.0900000036,          45.
   2901,  -4.19999981, 0.0900000036,          40.
   2902,  -4.19999981, 0.0900000036,          35.
   2903,  -4.19999981, 0.0900000036,          30.
   2904,  -4.19999981, 0.0900000036,          25.
   2905,  -4.19999981, 0.0900000036,          20.
   2906,  -4.19999981, 0.0900000036,          15.
   2907,  -4.19999981, 0.0900000036,          10.
   2908,  -4.19999981, 0.0900000036,           5.
   2909,  -1.79999995, 0.0599999987,          95.
   2910,  -1.79999995, 0.0599999987,          90.
   2911,  -1.79999995, 0.0599999987,          85.
   2912,  -1.79999995, 0.0599999987,          80.
   2913,  -1.79999995, 0.0599999987,          75.
   2914,  -1.79999995, 0.0599999987,          70.
   2915,  -1.79999995, 0.0599999987,          65.
   2916,  -1.79999995, 0.0599999987,          60.
   2917,  -1.79999995, 0.0599999987,          55.
   2918,  -1.79999995, 0.0599999987,          50.
   2919,  -1.79999995, 0.0599999987,          45.
   2920,  -1.79999995, 0.0599999987,          40.
   2921,  -1.79999995, 0.0599999987,          35.
   2922,  -1.79999995, 0.0599999987,          30.
   2923,  -1.79999995, 0.0599999987,          25.
   2924,  -1.79999995, 0.0599999987,          20.
   2925,  -1.79999995, 0.0599999987,          15.
   2926,  -1.79999995, 0.0599999987,          10.
   2927,  -1.79999995, 0.0599999987,           5.
   2928,   -2.5999999, 0.0599999987,          95.
   2929,   -2.5999999, 0.0599999987,          90.
   2930,   -2.5999999, 0.0599999987,          85.
   2931,   -2.5999999, 0.0599999987,          80.
   2932,   -2.5999999, 0.0599999987,          75.
   2933,   -2.5999999, 0.0599999987,          70.
   2934,   -2.5999999, 0.0599999987,          65.
   2935,   -2.5999999, 0.0599999987,          60.
   2936,   -2.5999999, 0.0599999987,          55.
   2937,   -2.5999999, 0.0599999987,          50.
   2938,   -2.5999999, 0.0599999987,          45.
   2939,   -2.5999999, 0.0599999987,          40.
   2940,   -2.5999999, 0.0599999987,          35.
   2941,   -2.5999999, 0.0599999987,          30.
   2942,   -2.5999999, 0.0599999987,          25.
   2943,   -2.5999999, 0.0599999987,          20.
   2944,   -2.5999999, 0.0599999987,          15.
   2945,   -2.5999999, 0.0599999987,          10.
   2946,   -2.5999999, 0.0599999987,           5.
   2947,   -3.4000001, 0.0599999987,          95.
   2948,   -3.4000001, 0.0599999987,          90.
   2949,   -3.4000001, 0.0599999987,          85.
   2950,   -3.4000001, 0.0599999987,          80.
   2951,   -3.4000001, 0.0599999987,          75.
   2952,   -3.4000001, 0.0599999987,          70.
   2953,   -3.4000001, 0.0599999987,          65.
   2954,   -3.4000001, 0.0599999987,          60.
   2955,   -3.4000001, 0.0599999987,          55.
   2956,   -3.4000001, 0.0599999987,          50.
   2957,   -3.4000001, 0.0599999987,          45.
   2958,   -3.4000001, 0.0599999987,          40.
   2959,   -3.4000001, 0.0599999987,          35.
   2960,   -3.4000001, 0.0599999987,          30.
   2961,   -3.4000001, 0.0599999987,          25.
   2962,   -3.4000001, 0.0599999987,          20.
   2963,   -3.4000001, 0.0599999987,          15.
   2964,   -3.4000001, 0.0599999987,          10.
   2965,   -3.4000001, 0.0599999987,           5.
   2966,  -4.19999981, 0.0599999987,          95.
   2967,  -4.19999981, 0.0599999987,          90.
   2968,  -4.19999981, 0.0599999987,          85.
   2969,  -4.19999981, 0.0599999987,          80.
   2970,  -4.19999981, 0.0599999987,          75.
   2971,  -4.19999981, 0.0599999987,          70.
   2972,  -4.19999981, 0.0599999987,          65.
   2973,  -4.19999981, 0.0599999987,          60.
   2974,  -4.19999981, 0.0599999987,          55.
   2975,  -4.19999981, 0.0599999987,          50.
   2976,  -4.19999981, 0.0599999987,          45.
   2977,  -4.19999981, 0.0599999987,          40.
   2978,  -4.19999981, 0.0599999987,          35.
   2979,  -4.19999981, 0.0599999987,          30.
   2980,  -4.19999981, 0.0599999987,          25.
   2981,  -4.19999981, 0.0599999987,          20.
   2982,  -4.19999981, 0.0599999987,          15.
   2983,  -4.19999981, 0.0599999987,          10.
   2984,  -4.19999981, 0.0599999987,           5.
   2985,  -1.79999995, 0.0299999993,          95.
   2986,  -1.79999995, 0.0299999993,          90.
   2987,  -1.79999995, 0.0299999993,          85.
   2988,  -1.79999995, 0.0299999993,          80.
   2989,  -1.79999995, 0.0299999993,          75.
   2990,  -1.79999995, 0.0299999993,          70.
   2991,  -1.79999995, 0.0299999993,          65.
   2992,  -1.79999995, 0.0299999993,          60.
   2993,  -1.79999995, 0.0299999993,          55.
   2994,  -1.79999995, 0.0299999993,          50.
   2995,  -1.79999995, 0.0299999993,          45.
   2996,  -1.79999995, 0.0299999993,          40.
   2997,  -1.79999995, 0.0299999993,          35.
   2998,  -1.79999995, 0.0299999993,          30.
   2999,  -1.79999995, 0.0299999993,          25.
   3000,  -1.79999995, 0.0299999993,          20.
   3001,  -1.79999995, 0.0299999993,          15.
   3002,  -1.79999995, 0.0299999993,          10.
   3003,  -1.79999995, 0.0299999993,           5.
   3004,   -2.5999999, 0.0299999993,          95.
   3005,   -2.5999999, 0.0299999993,          90.
   3006,   -2.5999999, 0.0299999993,          85.
   3007,   -2.5999999, 0.0299999993,          80.
   3008,   -2.5999999, 0.0299999993,          75.
   3009,   -2.5999999, 0.0299999993,          70.
   3010,   -2.5999999, 0.0299999993,          65.
   3011,   -2.5999999, 0.0299999993,          60.
   3012,   -2.5999999, 0.0299999993,          55.
   3013,   -2.5999999, 0.0299999993,          50.
   3014,   -2.5999999, 0.0299999993,          45.
   3015,   -2.5999999, 0.0299999993,          40.
   3016,   -2.5999999, 0.0299999993,          35.
   3017,   -2.5999999, 0.0299999993,          30.
   3018,   -2.5999999, 0.0299999993,          25.
   3019,   -2.5999999, 0.0299999993,          20.
   3020,   -2.5999999, 0.0299999993,          15.
   3021,   -2.5999999, 0.0299999993,          10.
   3022,   -2.5999999, 0.0299999993,           5.
   3023,   -3.4000001, 0.0299999993,          95.
   3024,   -3.4000001, 0.0299999993,          90.
   3025,   -3.4000001, 0.0299999993,          85.
   3026,   -3.4000001, 0.0299999993,          80.
   3027,   -3.4000001, 0.0299999993,          75.
   3028,   -3.4000001, 0.0299999993,          70.
   3029,   -3.4000001, 0.0299999993,          65.
   3030,   -3.4000001, 0.0299999993,          60.
   3031,   -3.4000001, 0.0299999993,          55.
   3032,   -3.4000001, 0.0299999993,          50.
   3033,   -3.4000001, 0.0299999993,          45.
   3034,   -3.4000001, 0.0299999993,          40.
   3035,   -3.4000001, 0.0299999993,          35.
   3036,   -3.4000001, 0.0299999993,          30.
   3037,   -3.4000001, 0.0299999993,          25.
   3038,   -3.4000001, 0.0299999993,          20.
   3039,   -3.4000001, 0.0299999993,          15.
   3040,   -3.4000001, 0.0299999993,          10.
   3041,   -3.4000001, 0.0299999993,           5.
   3042,  -4.19999981, 0.0299999993,          95.
   3043,  -4.19999981, 0.0299999993,          90.
   3044,  -4.19999981, 0.0299999993,          85.
   3045,  -4.19999981, 0.0299999993,          80.
   3046,  -4.19999981, 0.0299999993,          75.
   3047,  -4.19999981, 0.0299999993,          70.
   3048,  -4.19999981, 0.0299999993,          65.
   3049,  -4.19999981, 0.0299999993,          60.
   3050,  -4.19999981, 0.0299999993,          55.
   3051,  -4.19999981, 0.0299999993,          50.
   3052,  -4.19999981, 0.0299999993,          45.
   3053,  -4.19999981, 0.0299999993,          40.
   3054,  -4.19999981, 0.0299999993,          35.
   3055,  -4.19999981, 0.0299999993,          30.
   3056,  -4.19999981, 0.0299999993,          25.
   3057,  -4.19999981, 0.0299999993,          20.
   3058,  -4.19999981, 0.0299999993,          15.
   3059,  -4.19999981, 0.0299999993,          10.
   3060,  -4.19999981, 0.0299999993,           5.
   3061,  -5.76923084,  0.119999997,          95.
   3062,  -5.76923084,  0.119999997,          90.
   3063,  -5.76923084,  0.119999997,          85.
   3064,  -5.76923084,  0.119999997,          80.
   3065,  -5.76923084,  0.119999997,          75.
   3066,  -5.76923084,  0.119999997,          70.
   3067,  -5.76923084,  0.119999997,          65.
   3068,  -5.76923084,  0.119999997,          60.
   3069,  -5.76923084,  0.119999997,          55.
   3070,  -5.76923084,  0.119999997,          50.
   3071,  -5.76923084,  0.119999997,          45.
   3072,  -5.76923084,  0.119999997,          40.
   3073,  -5.76923084,  0.119999997,          35.
   3074,  -5.76923084,  0.119999997,          30.
   3075,  -5.76923084,  0.119999997,          25.
   3076,  -5.76923084,  0.119999997,          20.
   3077,  -5.76923084,  0.119999997,          15.
   3078,  -5.76923084,  0.119999997,          10.
   3079,  -5.76923084,  0.119999997,           5.
   3080,  -6.53846169,  0.119999997,          95.
   3081,  -6.53846169,  0.119999997,          90.
   3082,  -6.53846169,  0.119999997,          85.
   3083,  -6.53846169,  0.119999997,          80.
   3084,  -6.53846169,  0.119999997,          75.
   3085,  -6.53846169,  0.119999997,          70.
   3086,  -6.53846169,  0.119999997,          65.
   3087,  -6.53846169,  0.119999997,          60.
   3088,  -6.53846169,  0.119999997,          55.
   3089,  -6.53846169,  0.119999997,          50.
   3090,  -6.53846169,  0.119999997,          45.
   3091,  -6.53846169,  0.119999997,          40.
   3092,  -6.53846169,  0.119999997,          35.
   3093,  -6.53846169,  0.119999997,          30.
   3094,  -6.53846169,  0.119999997,          25.
   3095,  -6.53846169,  0.119999997,          20.
   3096,  -6.53846169,  0.119999997,          15.
   3097,  -6.53846169,  0.119999997,          10.
   3098,  -6.53846169,  0.119999997,           5.
   3099,  -7.30769253,  0.119999997,          95.
   3100,  -7.30769253,  0.119999997,          90.
   3101,  -7.30769253,  0.119999997,          85.
   3102,  -7.30769253,  0.119999997,          80.
   3103,  -7.30769253,  0.119999997,          75.
   3104,  -7.30769253,  0.119999997,          70.
   3105,  -7.30769253,  0.119999997,          65.
   3106,  -7.30769253,  0.119999997,          60.
   3107,  -7.30769253,  0.119999997,          55.
   3108,  -7.30769253,  0.119999997,          50.
   3109,  -7.30769253,  0.119999997,          45.
   3110,  -7.30769253,  0.119999997,          40.
   3111,  -7.30769253,  0.119999997,          35.
   3112,  -7.30769253,  0.119999997,          30.
   3113,  -7.30769253,  0.119999997,          25.
   3114,  -7.30769253,  0.119999997,          20.
   3115,  -7.30769253,  0.119999997,          15.
   3116,  -7.30769253,  0.119999997,          10.
   3117,  -7.30769253,  0.119999997,           5.
   3118,  -8.07692337,  0.119999997,          95.
   3119,  -8.07692337,  0.119999997,          90.
   3120,  -8.07692337,  0.119999997,          85.
   3121,  -8.07692337,  0.119999997,          80.
   3122,  -8.07692337,  0.119999997,          75.
   3123,  -8.07692337,  0.119999997,          70.
   3124,  -8.07692337,  0.119999997,          65.
   3125,  -8.07692337,  0.119999997,          60.
   3126,  -8.07692337,  0.119999997,          55.
   3127,  -8.07692337,  0.119999997,          50.
   3128,  -8.07692337,  0.119999997,          45.
   3129,  -8.07692337,  0.119999997,          40.
   3130,  -8.07692337,  0.119999997,          35.
   3131,  -8.07692337,  0.119999997,          30.
   3132,  -8.07692337,  0.119999997,          25.
   3133,  -8.07692337,  0.119999997,          20.
   3134,  -8.07692337,  0.119999997,          15.
   3135,  -8.07692337,  0.119999997,          10.
   3136,  -8.07692337,  0.119999997,           5.
   3137,  -8.84615421,  0.119999997,          95.
   3138,  -8.84615421,  0.119999997,          90.
   3139,  -8.84615421,  0.119999997,          85.
   3140,  -8.84615421,  0.119999997,          80.
   3141,  -8.84615421,  0.119999997,          75.
   3142,  -8.84615421,  0.119999997,          70.
   3143,  -8.84615421,  0.119999997,          65.
   3144,  -8.84615421,  0.119999997,          60.
   3145,  -8.84615421,  0.119999997,          55.
   3146,  -8.84615421,  0.119999997,          50.
   3147,  -8.84615421,  0.119999997,          45.
   3148,  -8.84615421,  0.119999997,          40.
   3149,  -8.84615421,  0.119999997,          35.
   3150,  -8.84615421,  0.119999997,          30.
   3151,  -8.84615421,  0.119999997,          25.
   3152,  -8.84615421,  0.119999997,          20.
   3153,  -8.84615421,  0.119999997,          15.
   3154,  -8.84615421,  0.119999997,          10.
   3155,  -8.84615421,  0.119999997,           5.
   3156,  -9.61538506,  0.119999997,          95.
   3157,  -9.61538506,  0.119999997,          90.
   3158,  -9.61538506,  0.119999997,          85.
   3159,  -9.61538506,  0.119999997,          80.
   3160,  -9.61538506,  0.119999997,          75.
   3161,  -9.61538506,  0.119999997,          70.
   3162,  -9.61538506,  0.119999997,          65.
   3163,  -9.61538506,  0.119999997,          60.
   3164,  -9.61538506,  0.119999997,          55.
   3165,  -9.61538506,  0.119999997,          50.
   3166,  -9.61538506,  0.119999997,          45.
   3167,  -9.61538506,  0.119999997,          40.
   3168,  -9.61538506,  0.119999997,          35.
   3169,  -9.61538506,  0.119999997,          30.
   3170,  -9.61538506,  0.119999997,          25.
   3171,  -9.61538506,  0.119999997,          20.
   3172,  -9.61538506,  0.119999997,          15.
   3173,  -9.61538506,  0.119999997,          10.
   3174,  -9.61538506,  0.119999997,           5.
   3175,  -10.3846149,  0.119999997,          95.
   3176,  -10.3846149,  0.119999997,          90.
   3177,  -10.3846149,  0.119999997,          85.
   3178,  -10.3846149,  0.119999997,          80.
   3179,  -10.3846149,  0.119999997,          75.
   3180,  -10.3846149,  0.119999997,          70.
   3181,  -10.3846149,  0.119999997,          65.
   3182,  -10.3846149,  0.119999997,          60.
   3183,  -10.3846149,  0.119999997,          55.
   3184,  -10.3846149,  0.119999997,          50.
   3185,  -10.3846149,  0.119999997,          45.
   3186,  -10.3846149,  0.119999997,          40.
   3187,  -10.3846149,  0.119999997,          35.
   3188,  -10.3846149,  0.119999997,          30.
   3189,  -10.3846149,  0.119999997,          25.
   3190,  -10.3846149,  0.119999997,          20.
   3191,  -10.3846149,  0.119999997,          15.
   3192,  -10.3846149,  0.119999997,          10.
   3193,  -10.3846149,  0.119999997,           5.
   3194,  -11.1538458,  0.119999997,          95.
   3195,  -11.1538458,  0.119999997,          90.
   3196,  -11.1538458,  0.119999997,          85.
   3197,  -11.1538458,  0.119999997,          80.
   3198,  -11.1538458,  0.119999997,          75.
   3199,  -11.1538458,  0.119999997,          70.
   3200,  -11.1538458,  0.119999997,          65.
   3201,  -11.1538458,  0.119999997,          60.
   3202,  -11.1538458,  0.119999997,          55.
   3203,  -11.1538458,  0.119999997,          50.
   3204,  -11.1538458,  0.119999997,          45.
   3205,  -11.1538458,  0.119999997,          40.
   3206,  -11.1538458,  0.119999997,          35.
   3207,  -11.1538458,  0.119999997,          30.
   3208,  -11.1538458,  0.119999997,          25.
   3209,  -11.1538458,  0.119999997,          20.
   3210,  -11.1538458,  0.119999997,          15.
   3211,  -11.1538458,  0.119999997,          10.
   3212,  -11.1538458,  0.119999997,           5.
   3213,  -11.9230766,  0.119999997,          95.
   3214,  -11.9230766,  0.119999997,          90.
   3215,  -11.9230766,  0.119999997,          85.
   3216,  -11.9230766,  0.119999997,          80.
   3217,  -11.9230766,  0.119999997,          75.
   3218,  -11.9230766,  0.119999997,          70.
   3219,  -11.9230766,  0.119999997,          65.
   3220,  -11.9230766,  0.119999997,          60.
   3221,  -11.9230766,  0.119999997,          55.
   3222,  -11.9230766,  0.119999997,          50.
   3223,  -11.9230766,  0.119999997,          45.
   3224,  -11.9230766,  0.119999997,          40.
   3225,  -11.9230766,  0.119999997,          35.
   3226,  -11.9230766,  0.119999997,          30.
   3227,  -11.9230766,  0.119999997,          25.
   3228,  -11.9230766,  0.119999997,          20.
   3229,  -11.9230766,  0.119999997,          15.
   3230,  -11.9230766,  0.119999997,          10.
   3231,  -11.9230766,  0.119999997,           5.
   3232,  -12.6923075,  0.119999997,          95.
   3233,  -12.6923075,  0.119999997,          90.
   3234,  -12.6923075,  0.119999997,          85.
   3235,  -12.6923075,  0.119999997,          80.
   3236,  -12.6923075,  0.119999997,          75.
   3237,  -12.6923075,  0.119999997,          70.
   3238,  -12.6923075,  0.119999997,          65.
   3239,  -12.6923075,  0.119999997,          60.
   3240,  -12.6923075,  0.119999997,          55.
   3241,  -12.6923075,  0.119999997,          50.
   3242,  -12.6923075,  0.119999997,          45.
   3243,  -12.6923075,  0.119999997,          40.
   3244,  -12.6923075,  0.119999997,          35.
   3245,  -12.6923075,  0.119999997,          30.
   3246,  -12.6923075,  0.119999997,          25.
   3247,  -12.6923075,  0.119999997,          20.
   3248,  -12.6923075,  0.119999997,          15.
   3249,  -12.6923075,  0.119999997,          10.
   3250,  -12.6923075,  0.119999997,           5.
   3251,  -13.4615383,  0.119999997,          95.
   3252,  -13.4615383,  0.119999997,          90.
   3253,  -13.4615383,  0.119999997,          85.
   3254,  -13.4615383,  0.119999997,          80.
   3255,  -13.4615383,  0.119999997,          75.
   3256,  -13.4615383,  0.119999997,          70.
   3257,  -13.4615383,  0.119999997,          65.
   3258,  -13.4615383,  0.119999997,          60.
   3259,  -13.4615383,  0.119999997,          55.
   3260,  -13.4615383,  0.119999997,          50.
   3261,  -13.4615383,  0.119999997,          45.
   3262,  -13.4615383,  0.119999997,          40.
   3263,  -13.4615383,  0.119999997,          35.
   3264,  -13.4615383,  0.119999997,          30.
   3265,  -13.4615383,  0.119999997,          25.
   3266,  -13.4615383,  0.119999997,          20.
   3267,  -13.4615383,  0.119999997,          15.
   3268,  -13.4615383,  0.119999997,          10.
   3269,  -13.4615383,  0.119999997,           5.
   3270,  -14.2307692,  0.119999997,          95.
   3271,  -14.2307692,  0.119999997,          90.
   3272,  -14.2307692,  0.119999997,          85.
   3273,  -14.2307692,  0.119999997,          80.
   3274,  -14.2307692,  0.119999997,          75.
   3275,  -14.2307692,  0.119999997,          70.
   3276,  -14.2307692,  0.119999997,          65.
   3277,  -14.2307692,  0.119999997,          60.
   3278,  -14.2307692,  0.119999997,          55.
   3279,  -14.2307692,  0.119999997,          50.
   3280,  -14.2307692,  0.119999997,          45.
   3281,  -14.2307692,  0.119999997,          40.
   3282,  -14.2307692,  0.119999997,          35.
   3283,  -14.2307692,  0.119999997,          30.
   3284,  -14.2307692,  0.119999997,          25.
   3285,  -14.2307692,  0.119999997,          20.
   3286,  -14.2307692,  0.119999997,          15.
   3287,  -14.2307692,  0.119999997,          10.
   3288,  -14.2307692,  0.119999997,           5.
   3289,  -5.76923084, 0.0900000036,          95.
   3290,  -5.76923084, 0.0900000036,          90.
   3291,  -5.76923084, 0.0900000036,          85.
   3292,  -5.76923084, 0.0900000036,          80.
   3293,  -5.76923084, 0.0900000036,          75.
   3294,  -5.76923084, 0.0900000036,          70.
   3295,  -5.76923084, 0.0900000036,          65.
   3296,  -5.76923084, 0.0900000036,          60.
   3297,  -5.76923084, 0.0900000036,          55.
   3298,  -5.76923084, 0.0900000036,          50.
   3299,  -5.76923084, 0.0900000036,          45.
   3300,  -5.76923084, 0.0900000036,          40.
   3301,  -5.76923084, 0.0900000036,          35.
   3302,  -5.76923084, 0.0900000036,          30.
   3303,  -5.76923084, 0.0900000036,          25.
   3304,  -5.76923084, 0.0900000036,          20.
   3305,  -5.76923084, 0.0900000036,          15.
   3306,  -5.76923084, 0.0900000036,          10.
   3307,  -5.76923084, 0.0900000036,           5.
   3308,  -6.53846169, 0.0900000036,          95.
   3309,  -6.53846169, 0.0900000036,          90.
   3310,  -6.53846169, 0.0900000036,          85.
   3311,  -6.53846169, 0.0900000036,          80.
   3312,  -6.53846169, 0.0900000036,          75.
   3313,  -6.53846169, 0.0900000036,          70.
   3314,  -6.53846169, 0.0900000036,          65.
   3315,  -6.53846169, 0.0900000036,          60.
   3316,  -6.53846169, 0.0900000036,          55.
   3317,  -6.53846169, 0.0900000036,          50.
   3318,  -6.53846169, 0.0900000036,          45.
   3319,  -6.53846169, 0.0900000036,          40.
   3320,  -6.53846169, 0.0900000036,          35.
   3321,  -6.53846169, 0.0900000036,          30.
   3322,  -6.53846169, 0.0900000036,          25.
   3323,  -6.53846169, 0.0900000036,          20.
   3324,  -6.53846169, 0.0900000036,          15.
   3325,  -6.53846169, 0.0900000036,          10.
   3326,  -6.53846169, 0.0900000036,           5.
   3327,  -7.30769253, 0.0900000036,          95.
   3328,  -7.30769253, 0.0900000036,          90.
   3329,  -7.30769253, 0.0900000036,          85.
   3330,  -7.30769253, 0.0900000036,          80.
   3331,  -7.30769253, 0.0900000036,          75.
   3332,  -7.30769253, 0.0900000036,          70.
   3333,  -7.30769253, 0.0900000036,          65.
   3334,  -7.30769253, 0.0900000036,          60.
   3335,  -7.30769253, 0.0900000036,          55.
   3336,  -7.30769253, 0.0900000036,          50.
   3337,  -7.30769253, 0.0900000036,          45.
   3338,  -7.30769253, 0.0900000036,          40.
   3339,  -7.30769253, 0.0900000036,          35.
   3340,  -7.30769253, 0.0900000036,          30.
   3341,  -7.30769253, 0.0900000036,          25.
   3342,  -7.30769253, 0.0900000036,          20.
   3343,  -7.30769253, 0.0900000036,          15.
   3344,  -7.30769253, 0.0900000036,          10.
   3345,  -7.30769253, 0.0900000036,           5.
   3346,  -8.07692337, 0.0900000036,          95.
   3347,  -8.07692337, 0.0900000036,          90.
   3348,  -8.07692337, 0.0900000036,          85.
   3349,  -8.07692337, 0.0900000036,          80.
   3350,  -8.07692337, 0.0900000036,          75.
   3351,  -8.07692337, 0.0900000036,          70.
   3352,  -8.07692337, 0.0900000036,          65.
   3353,  -8.07692337, 0.0900000036,          60.
   3354,  -8.07692337, 0.0900000036,          55.
   3355,  -8.07692337, 0.0900000036,          50.
   3356,  -8.07692337, 0.0900000036,          45.
   3357,  -8.07692337, 0.0900000036,          40.
   3358,  -8.07692337, 0.0900000036,          35.
   3359,  -8.07692337, 0.0900000036,          30.
   3360,  -8.07692337, 0.0900000036,          25.
   3361,  -8.07692337, 0.0900000036,          20.
   3362,  -8.07692337, 0.0900000036,          15.
   3363,  -8.07692337, 0.0900000036,          10.
   3364,  -8.07692337, 0.0900000036,           5.
   3365,  -8.84615421, 0.0900000036,          95.
   3366,  -8.84615421, 0.0900000036,          90.
   3367,  -8.84615421, 0.0900000036,          85.
   3368,  -8.84615421, 0.0900000036,          80.
   3369,  -8.84615421, 0.0900000036,          75.
   3370,  -8.84615421, 0.0900000036,          70.
   3371,  -8.84615421, 0.0900000036,          65.
   3372,  -8.84615421, 0.0900000036,          60.
   3373,  -8.84615421, 0.0900000036,          55.
   3374,  -8.84615421, 0.0900000036,          50.
   3375,  -8.84615421, 0.0900000036,          45.
   3376,  -8.84615421, 0.0900000036,          40.
   3377,  -8.84615421, 0.0900000036,          35.
   3378,  -8.84615421, 0.0900000036,          30.
   3379,  -8.84615421, 0.0900000036,          25.
   3380,  -8.84615421, 0.0900000036,          20.
   3381,  -8.84615421, 0.0900000036,          15.
   3382,  -8.84615421, 0.0900000036,          10.
   3383,  -8.84615421, 0.0900000036,           5.
   3384,  -9.61538506, 0.0900000036,          95.
   3385,  -9.61538506, 0.0900000036,          90.
   3386,  -9.61538506, 0.0900000036,          85.
   3387,  -9.61538506, 0.0900000036,          80.
   3388,  -9.61538506, 0.0900000036,          75.
   3389,  -9.61538506, 0.0900000036,          70.
   3390,  -9.61538506, 0.0900000036,          65.
   3391,  -9.61538506, 0.0900000036,          60.
   3392,  -9.61538506, 0.0900000036,          55.
   3393,  -9.61538506, 0.0900000036,          50.
   3394,  -9.61538506, 0.0900000036,          45.
   3395,  -9.61538506, 0.0900000036,          40.
   3396,  -9.61538506, 0.0900000036,          35.
   3397,  -9.61538506, 0.0900000036,          30.
   3398,  -9.61538506, 0.0900000036,          25.
   3399,  -9.61538506, 0.0900000036,          20.
   3400,  -9.61538506, 0.0900000036,          15.
   3401,  -9.61538506, 0.0900000036,          10.
   3402,  -9.61538506, 0.0900000036,           5.
   3403,  -10.3846149, 0.0900000036,          95.
   3404,  -10.3846149, 0.0900000036,          90.
   3405,  -10.3846149, 0.0900000036,          85.
   3406,  -10.3846149, 0.0900000036,          80.
   3407,  -10.3846149, 0.0900000036,          75.
   3408,  -10.3846149, 0.0900000036,          70.
   3409,  -10.3846149, 0.0900000036,          65.
   3410,  -10.3846149, 0.0900000036,          60.
   3411,  -10.3846149, 0.0900000036,          55.
   3412,  -10.3846149, 0.0900000036,          50.
   3413,  -10.3846149, 0.0900000036,          45.
   3414,  -10.3846149, 0.0900000036,          40.
   3415,  -10.3846149, 0.0900000036,          35.
   3416,  -10.3846149, 0.0900000036,          30.
   3417,  -10.3846149, 0.0900000036,          25.
   3418,  -10.3846149, 0.0900000036,          20.
   3419,  -10.3846149, 0.0900000036,          15.
   3420,  -10.3846149, 0.0900000036,          10.
   3421,  -10.3846149, 0.0900000036,           5.
   3422,  -11.1538458, 0.0900000036,          95.
   3423,  -11.1538458, 0.0900000036,          90.
   3424,  -11.1538458, 0.0900000036,          85.
   3425,  -11.1538458, 0.0900000036,          80.
   3426,  -11.1538458, 0.0900000036,          75.
   3427,  -11.1538458, 0.0900000036,          70.
   3428,  -11.1538458, 0.0900000036,          65.
   3429,  -11.1538458, 0.0900000036,          60.
   3430,  -11.1538458, 0.0900000036,          55.
   3431,  -11.1538458, 0.0900000036,          50.
   3432,  -11.1538458, 0.0900000036,          45.
   3433,  -11.1538458, 0.0900000036,          40.
   3434,  -11.1538458, 0.0900000036,          35.
   3435,  -11.1538458, 0.0900000036,          30.
   3436,  -11.1538458, 0.0900000036,          25.
   3437,  -11.1538458, 0.0900000036,          20.
   3438,  -11.1538458, 0.0900000036,          15.
   3439,  -11.1538458, 0.0900000036,          10.
   3440,  -11.1538458, 0.0900000036,           5.
   3441,  -11.9230766, 0.0900000036,          95.
   3442,  -11.9230766, 0.0900000036,          90.
   3443,  -11.9230766, 0.0900000036,          85.
   3444,  -11.9230766, 0.0900000036,          80.
   3445,  -11.9230766, 0.0900000036,          75.
   3446,  -11.9230766, 0.0900000036,          70.
   3447,  -11.9230766, 0.0900000036,          65.
   3448,  -11.9230766, 0.0900000036,          60.
   3449,  -11.9230766, 0.0900000036,          55.
   3450,  -11.9230766, 0.0900000036,          50.
   3451,  -11.9230766, 0.0900000036,          45.
   3452,  -11.9230766, 0.0900000036,          40.
   3453,  -11.9230766, 0.0900000036,          35.
   3454,  -11.9230766, 0.0900000036,          30.
   3455,  -11.9230766, 0.0900000036,          25.
   3456,  -11.9230766, 0.0900000036,          20.
   3457,  -11.9230766, 0.0900000036,          15.
   3458,  -11.9230766, 0.0900000036,          10.
   3459,  -11.9230766, 0.0900000036,           5.
   3460,  -12.6923075, 0.0900000036,          95.
   3461,  -12.6923075, 0.0900000036,          90.
   3462,  -12.6923075, 0.0900000036,          85.
   3463,  -12.6923075, 0.0900000036,          80.
   3464,  -12.6923075, 0.0900000036,          75.
   3465,  -12.6923075, 0.0900000036,          70.
   3466,  -12.6923075, 0.0900000036,          65.
   3467,  -12.6923075, 0.0900000036,          60.
   3468,  -12.6923075, 0.0900000036,          55.
   3469,  -12.6923075, 0.0900000036,          50.
   3470,  -12.6923075, 0.0900000036,          45.
   3471,  -12.6923075, 0.0900000036,          40.
   3472,  -12.6923075, 0.0900000036,          35.
   3473,  -12.6923075, 0.0900000036,          30.
   3474,  -12.6923075, 0.0900000036,          25.
   3475,  -12.6923075, 0.0900000036,          20.
   3476,  -12.6923075, 0.0900000036,          15.
   3477,  -12.6923075, 0.0900000036,          10.
   3478,  -12.6923075, 0.0900000036,           5.
   3479,  -13.4615383, 0.0900000036,          95.
   3480,  -13.4615383, 0.0900000036,          90.
   3481,  -13.4615383, 0.0900000036,          85.
   3482,  -13.4615383, 0.0900000036,          80.
   3483,  -13.4615383, 0.0900000036,          75.
   3484,  -13.4615383, 0.0900000036,          70.
   3485,  -13.4615383, 0.0900000036,          65.
   3486,  -13.4615383, 0.0900000036,          60.
   3487,  -13.4615383, 0.0900000036,          55.
   3488,  -13.4615383, 0.0900000036,          50.
   3489,  -13.4615383, 0.0900000036,          45.
   3490,  -13.4615383, 0.0900000036,          40.
   3491,  -13.4615383, 0.0900000036,          35.
   3492,  -13.4615383, 0.0900000036,          30.
   3493,  -13.4615383, 0.0900000036,          25.
   3494,  -13.4615383, 0.0900000036,          20.
   3495,  -13.4615383, 0.0900000036,          15.
   3496,  -13.4615383, 0.0900000036,          10.
   3497,  -13.4615383, 0.0900000036,           5.
   3498,  -14.2307692, 0.0900000036,          95.
   3499,  -14.2307692, 0.0900000036,          90.
   3500,  -14.2307692, 0.0900000036,          85.
   3501,  -14.2307692, 0.0900000036,          80.
   3502,  -14.2307692, 0.0900000036,          75.
   3503,  -14.2307692, 0.0900000036,          70.
   3504,  -14.2307692, 0.0900000036,          65.
   3505,  -14.2307692, 0.0900000036,          60.
   3506,  -14.2307692, 0.0900000036,          55.
   3507,  -14.2307692, 0.0900000036,          50.
   3508,  -14.2307692, 0.0900000036,          45.
   3509,  -14.2307692, 0.0900000036,          40.
   3510,  -14.2307692, 0.0900000036,          35.
   3511,  -14.2307692, 0.0900000036,          30.
   3512,  -14.2307692, 0.0900000036,          25.
   3513,  -14.2307692, 0.0900000036,          20.
   3514,  -14.2307692, 0.0900000036,          15.
   3515,  -14.2307692, 0.0900000036,          10.
   3516,  -14.2307692, 0.0900000036,           5.
   3517,  -5.76923084, 0.0599999987,          95.
   3518,  -5.76923084, 0.0599999987,          90.
   3519,  -5.76923084, 0.0599999987,          85.
   3520,  -5.76923084, 0.0599999987,          80.
   3521,  -5.76923084, 0.0599999987,          75.
   3522,  -5.76923084, 0.0599999987,          70.
   3523,  -5.76923084, 0.0599999987,          65.
   3524,  -5.76923084, 0.0599999987,          60.
   3525,  -5.76923084, 0.0599999987,          55.
   3526,  -5.76923084, 0.0599999987,          50.
   3527,  -5.76923084, 0.0599999987,          45.
   3528,  -5.76923084, 0.0599999987,          40.
   3529,  -5.76923084, 0.0599999987,          35.
   3530,  -5.76923084, 0.0599999987,          30.
   3531,  -5.76923084, 0.0599999987,          25.
   3532,  -5.76923084, 0.0599999987,          20.
   3533,  -5.76923084, 0.0599999987,          15.
   3534,  -5.76923084, 0.0599999987,          10.
   3535,  -5.76923084, 0.0599999987,           5.
   3536,  -6.53846169, 0.0599999987,          95.
   3537,  -6.53846169, 0.0599999987,          90.
   3538,  -6.53846169, 0.0599999987,          85.
   3539,  -6.53846169, 0.0599999987,          80.
   3540,  -6.53846169, 0.0599999987,          75.
   3541,  -6.53846169, 0.0599999987,          70.
   3542,  -6.53846169, 0.0599999987,          65.
   3543,  -6.53846169, 0.0599999987,          60.
   3544,  -6.53846169, 0.0599999987,          55.
   3545,  -6.53846169, 0.0599999987,          50.
   3546,  -6.53846169, 0.0599999987,          45.
   3547,  -6.53846169, 0.0599999987,          40.
   3548,  -6.53846169, 0.0599999987,          35.
   3549,  -6.53846169, 0.0599999987,          30.
   3550,  -6.53846169, 0.0599999987,          25.
   3551,  -6.53846169, 0.0599999987,          20.
   3552,  -6.53846169, 0.0599999987,          15.
   3553,  -6.53846169, 0.0599999987,          10.
   3554,  -6.53846169, 0.0599999987,           5.
   3555,  -7.30769253, 0.0599999987,          95.
   3556,  -7.30769253, 0.0599999987,          90.
   3557,  -7.30769253, 0.0599999987,          85.
   3558,  -7.30769253, 0.0599999987,          80.
   3559,  -7.30769253, 0.0599999987,          75.
   3560,  -7.30769253, 0.0599999987,          70.
   3561,  -7.30769253, 0.0599999987,          65.
   3562,  -7.30769253, 0.0599999987,          60.
   3563,  -7.30769253, 0.0599999987,          55.
   3564,  -7.30769253, 0.0599999987,          50.
   3565,  -7.30769253, 0.0599999987,          45.
   3566,  -7.30769253, 0.0599999987,          40.
   3567,  -7.30769253, 0.0599999987,          35.
   3568,  -7.30769253, 0.0599999987,          30.
   3569,  -7.30769253, 0.0599999987,          25.
   3570,  -7.30769253, 0.0599999987,          20.
   3571,  -7.30769253, 0.0599999987,          15.
   3572,  -7.30769253, 0.0599999987,          10.
   3573,  -7.30769253, 0.0599999987,           5.
   3574,  -8.07692337, 0.0599999987,          95.
   3575,  -8.07692337, 0.0599999987,          90.
   3576,  -8.07692337, 0.0599999987,          85.
   3577,  -8.07692337, 0.0599999987,          80.
   3578,  -8.07692337, 0.0599999987,          75.
   3579,  -8.07692337, 0.0599999987,          70.
   3580,  -8.07692337, 0.0599999987,          65.
   3581,  -8.07692337, 0.0599999987,          60.
   3582,  -8.07692337, 0.0599999987,          55.
   3583,  -8.07692337, 0.0599999987,          50.
   3584,  -8.07692337, 0.0599999987,          45.
   3585,  -8.07692337, 0.0599999987,          40.
   3586,  -8.07692337, 0.0599999987,          35.
   3587,  -8.07692337, 0.0599999987,          30.
   3588,  -8.07692337, 0.0599999987,          25.
   3589,  -8.07692337, 0.0599999987,          20.
   3590,  -8.07692337, 0.0599999987,          15.
   3591,  -8.07692337, 0.0599999987,          10.
   3592,  -8.07692337, 0.0599999987,           5.
   3593,  -8.84615421, 0.0599999987,          95.
   3594,  -8.84615421, 0.0599999987,          90.
   3595,  -8.84615421, 0.0599999987,          85.
   3596,  -8.84615421, 0.0599999987,          80.
   3597,  -8.84615421, 0.0599999987,          75.
   3598,  -8.84615421, 0.0599999987,          70.
   3599,  -8.84615421, 0.0599999987,          65.
   3600,  -8.84615421, 0.0599999987,          60.
   3601,  -8.84615421, 0.0599999987,          55.
   3602,  -8.84615421, 0.0599999987,          50.
   3603,  -8.84615421, 0.0599999987,          45.
   3604,  -8.84615421, 0.0599999987,          40.
   3605,  -8.84615421, 0.0599999987,          35.
   3606,  -8.84615421, 0.0599999987,          30.
   3607,  -8.84615421, 0.0599999987,          25.
   3608,  -8.84615421, 0.0599999987,          20.
   3609,  -8.84615421, 0.0599999987,          15.
   3610,  -8.84615421, 0.0599999987,          10.
   3611,  -8.84615421, 0.0599999987,           5.
   3612,  -9.61538506, 0.0599999987,          95.
   3613,  -9.61538506, 0.0599999987,          90.
   3614,  -9.61538506, 0.0599999987,          85.
   3615,  -9.61538506, 0.0599999987,          80.
   3616,  -9.61538506, 0.0599999987,          75.
   3617,  -9.61538506, 0.0599999987,          70.
   3618,  -9.61538506, 0.0599999987,          65.
   3619,  -9.61538506, 0.0599999987,          60.
   3620,  -9.61538506, 0.0599999987,          55.
   3621,  -9.61538506, 0.0599999987,          50.
   3622,  -9.61538506, 0.0599999987,          45.
   3623,  -9.61538506, 0.0599999987,          40.
   3624,  -9.61538506, 0.0599999987,          35.
   3625,  -9.61538506, 0.0599999987,          30.
   3626,  -9.61538506, 0.0599999987,          25.
   3627,  -9.61538506, 0.0599999987,          20.
   3628,  -9.61538506, 0.0599999987,          15.
   3629,  -9.61538506, 0.0599999987,          10.
   3630,  -9.61538506, 0.0599999987,           5.
   3631,  -10.3846149, 0.0599999987,          95.
   3632,  -10.3846149, 0.0599999987,          90.
   3633,  -10.3846149, 0.0599999987,          85.
   3634,  -10.3846149, 0.0599999987,          80.
   3635,  -10.3846149, 0.0599999987,          75.
   3636,  -10.3846149, 0.0599999987,          70.
   3637,  -10.3846149, 0.0599999987,          65.
   3638,  -10.3846149, 0.0599999987,          60.
   3639,  -10.3846149, 0.0599999987,          55.
   3640,  -10.3846149, 0.0599999987,          50.
   3641,  -10.3846149, 0.0599999987,          45.
   3642,  -10.3846149, 0.0599999987,          40.
   3643,  -10.3846149, 0.0599999987,          35.
   3644,  -10.3846149, 0.0599999987,          30.
   3645,  -10.3846149, 0.0599999987,          25.
   3646,  -10.3846149, 0.0599999987,          20.
   3647,  -10.3846149, 0.0599999987,          15.
   3648,  -10.3846149, 0.0599999987,          10.
   3649,  -10.3846149, 0.0599999987,           5.
   3650,  -11.1538458, 0.0599999987,          95.
   3651,  -11.1538458, 0.0599999987,          90.
   3652,  -11.1538458, 0.0599999987,          85.
   3653,  -11.1538458, 0.0599999987,          80.
   3654,  -11.1538458, 0.0599999987,          75.
   3655,  -11.1538458, 0.0599999987,          70.
   3656,  -11.1538458, 0.0599999987,          65.
   3657,  -11.1538458, 0.0599999987,          60.
   3658,  -11.1538458, 0.0599999987,          55.
   3659,  -11.1538458, 0.0599999987,          50.
   3660,  -11.1538458, 0.0599999987,          45.
   3661,  -11.1538458, 0.0599999987,          40.
   3662,  -11.1538458, 0.0599999987,          35.
   3663,  -11.1538458, 0.0599999987,          30.
   3664,  -11.1538458, 0.0599999987,          25.
   3665,  -11.1538458, 0.0599999987,          20.
   3666,  -11.1538458, 0.0599999987,          15.
   3667,  -11.1538458, 0.0599999987,          10.
   3668,  -11.1538458, 0.0599999987,           5.
   3669,  -11.9230766, 0.0599999987,          95.
   3670,  -11.9230766, 0.0599999987,          90.
   3671,  -11.9230766, 0.0599999987,          85.
   3672,  -11.9230766, 0.0599999987,          80.
   3673,  -11.9230766, 0.0599999987,          75.
   3674,  -11.9230766, 0.0599999987,          70.
   3675,  -11.9230766, 0.0599999987,          65.
   3676,  -11.9230766, 0.0599999987,          60.
   3677,  -11.9230766, 0.0599999987,          55.
   3678,  -11.9230766, 0.0599999987,          50.
   3679,  -11.9230766, 0.0599999987,          45.
   3680,  -11.9230766, 0.0599999987,          40.
   3681,  -11.9230766, 0.0599999987,          35.
   3682,  -11.9230766, 0.0599999987,          30.
   3683,  -11.9230766, 0.0599999987,          25.
   3684,  -11.9230766, 0.0599999987,          20.
   3685,  -11.9230766, 0.0599999987,          15.
   3686,  -11.9230766, 0.0599999987,          10.
   3687,  -11.9230766, 0.0599999987,           5.
   3688,  -12.6923075, 0.0599999987,          95.
   3689,  -12.6923075, 0.0599999987,          90.
   3690,  -12.6923075, 0.0599999987,          85.
   3691,  -12.6923075, 0.0599999987,          80.
   3692,  -12.6923075, 0.0599999987,          75.
   3693,  -12.6923075, 0.0599999987,          70.
   3694,  -12.6923075, 0.0599999987,          65.
   3695,  -12.6923075, 0.0599999987,          60.
   3696,  -12.6923075, 0.0599999987,          55.
   3697,  -12.6923075, 0.0599999987,          50.
   3698,  -12.6923075, 0.0599999987,          45.
   3699,  -12.6923075, 0.0599999987,          40.
   3700,  -12.6923075, 0.0599999987,          35.
   3701,  -12.6923075, 0.0599999987,          30.
   3702,  -12.6923075, 0.0599999987,          25.
   3703,  -12.6923075, 0.0599999987,          20.
   3704,  -12.6923075, 0.0599999987,          15.
   3705,  -12.6923075, 0.0599999987,          10.
   3706,  -12.6923075, 0.0599999987,           5.
   3707,  -13.4615383, 0.0599999987,          95.
   3708,  -13.4615383, 0.0599999987,          90.
   3709,  -13.4615383, 0.0599999987,          85.
   3710,  -13.4615383, 0.0599999987,          80.
   3711,  -13.4615383, 0.0599999987,          75.
   3712,  -13.4615383, 0.0599999987,          70.
   3713,  -13.4615383, 0.0599999987,          65.
   3714,  -13.4615383, 0.0599999987,          60.
   3715,  -13.4615383, 0.0599999987,          55.
   3716,  -13.4615383, 0.0599999987,          50.
   3717,  -13.4615383, 0.0599999987,          45.
   3718,  -13.4615383, 0.0599999987,          40.
   3719,  -13.4615383, 0.0599999987,          35.
   3720,  -13.4615383, 0.0599999987,          30.
   3721,  -13.4615383, 0.0599999987,          25.
   3722,  -13.4615383, 0.0599999987,          20.
   3723,  -13.4615383, 0.0599999987,          15.
   3724,  -13.4615383, 0.0599999987,          10.
   3725,  -13.4615383, 0.0599999987,           5.
   3726,  -14.2307692, 0.0599999987,          95.
   3727,  -14.2307692, 0.0599999987,          90.
   3728,  -14.2307692, 0.0599999987,          85.
   3729,  -14.2307692, 0.0599999987,          80.
   3730,  -14.2307692, 0.0599999987,          75.
   3731,  -14.2307692, 0.0599999987,          70.
   3732,  -14.2307692, 0.0599999987,          65.
   3733,  -14.2307692, 0.0599999987,          60.
   3734,  -14.2307692, 0.0599999987,          55.
   3735,  -14.2307692, 0.0599999987,          50.
   3736,  -14.2307692, 0.0599999987,          45.
   3737,  -14.2307692, 0.0599999987,          40.
   3738,  -14.2307692, 0.0599999987,          35.
   3739,  -14.2307692, 0.0599999987,          30.
   3740,  -14.2307692, 0.0599999987,          25.
   3741,  -14.2307692, 0.0599999987,          20.
   3742,  -14.2307692, 0.0599999987,          15.
   3743,  -14.2307692, 0.0599999987,          10.
   3744,  -14.2307692, 0.0599999987,           5.
   3745,  -5.76923084, 0.0299999993,          95.
   3746,  -5.76923084, 0.0299999993,          90.
   3747,  -5.76923084, 0.0299999993,          85.
   3748,  -5.76923084, 0.0299999993,          80.
   3749,  -5.76923084, 0.0299999993,          75.
   3750,  -5.76923084, 0.0299999993,          70.
   3751,  -5.76923084, 0.0299999993,          65.
   3752,  -5.76923084, 0.0299999993,          60.
   3753,  -5.76923084, 0.0299999993,          55.
   3754,  -5.76923084, 0.0299999993,          50.
   3755,  -5.76923084, 0.0299999993,          45.
   3756,  -5.76923084, 0.0299999993,          40.
   3757,  -5.76923084, 0.0299999993,          35.
   3758,  -5.76923084, 0.0299999993,          30.
   3759,  -5.76923084, 0.0299999993,          25.
   3760,  -5.76923084, 0.0299999993,          20.
   3761,  -5.76923084, 0.0299999993,          15.
   3762,  -5.76923084, 0.0299999993,          10.
   3763,  -5.76923084, 0.0299999993,           5.
   3764,  -6.53846169, 0.0299999993,          95.
   3765,  -6.53846169, 0.0299999993,          90.
   3766,  -6.53846169, 0.0299999993,          85.
   3767,  -6.53846169, 0.0299999993,          80.
   3768,  -6.53846169, 0.0299999993,          75.
   3769,  -6.53846169, 0.0299999993,          70.
   3770,  -6.53846169, 0.0299999993,          65.
   3771,  -6.53846169, 0.0299999993,          60.
   3772,  -6.53846169, 0.0299999993,          55.
   3773,  -6.53846169, 0.0299999993,          50.
   3774,  -6.53846169, 0.0299999993,          45.
   3775,  -6.53846169, 0.0299999993,          40.
   3776,  -6.53846169, 0.0299999993,          35.
   3777,  -6.53846169, 0.0299999993,          30.
   3778,  -6.53846169, 0.0299999993,          25.
   3779,  -6.53846169, 0.0299999993,          20.
   3780,  -6.53846169, 0.0299999993,          15.
   3781,  -6.53846169, 0.0299999993,          10.
   3782,  -6.53846169, 0.0299999993,           5.
   3783,  -7.30769253, 0.0299999993,          95.
   3784,  -7.30769253, 0.0299999993,          90.
   3785,  -7.30769253, 0.0299999993,          85.
   3786,  -7.30769253, 0.0299999993,          80.
   3787,  -7.30769253, 0.0299999993,          75.
   3788,  -7.30769253, 0.0299999993,          70.
   3789,  -7.30769253, 0.0299999993,          65.
   3790,  -7.30769253, 0.0299999993,          60.
   3791,  -7.30769253, 0.0299999993,          55.
   3792,  -7.30769253, 0.0299999993,          50.
   3793,  -7.30769253, 0.0299999993,          45.
   3794,  -7.30769253, 0.0299999993,          40.
   3795,  -7.30769253, 0.0299999993,          35.
   3796,  -7.30769253, 0.0299999993,          30.
   3797,  -7.30769253, 0.0299999993,          25.
   3798,  -7.30769253, 0.0299999993,          20.
   3799,  -7.30769253, 0.0299999993,          15.
   3800,  -7.30769253, 0.0299999993,          10.
   3801,  -7.30769253, 0.0299999993,           5.
   3802,  -8.07692337, 0.0299999993,          95.
   3803,  -8.07692337, 0.0299999993,          90.
   3804,  -8.07692337, 0.0299999993,          85.
   3805,  -8.07692337, 0.0299999993,          80.
   3806,  -8.07692337, 0.0299999993,          75.
   3807,  -8.07692337, 0.0299999993,          70.
   3808,  -8.07692337, 0.0299999993,          65.
   3809,  -8.07692337, 0.0299999993,          60.
   3810,  -8.07692337, 0.0299999993,          55.
   3811,  -8.07692337, 0.0299999993,          50.
   3812,  -8.07692337, 0.0299999993,          45.
   3813,  -8.07692337, 0.0299999993,          40.
   3814,  -8.07692337, 0.0299999993,          35.
   3815,  -8.07692337, 0.0299999993,          30.
   3816,  -8.07692337, 0.0299999993,          25.
   3817,  -8.07692337, 0.0299999993,          20.
   3818,  -8.07692337, 0.0299999993,          15.
   3819,  -8.07692337, 0.0299999993,          10.
   3820,  -8.07692337, 0.0299999993,           5.
   3821,  -8.84615421, 0.0299999993,          95.
   3822,  -8.84615421, 0.0299999993,          90.
   3823,  -8.84615421, 0.0299999993,          85.
   3824,  -8.84615421, 0.0299999993,          80.
   3825,  -8.84615421, 0.0299999993,          75.
   3826,  -8.84615421, 0.0299999993,          70.
   3827,  -8.84615421, 0.0299999993,          65.
   3828,  -8.84615421, 0.0299999993,          60.
   3829,  -8.84615421, 0.0299999993,          55.
   3830,  -8.84615421, 0.0299999993,          50.
   3831,  -8.84615421, 0.0299999993,          45.
   3832,  -8.84615421, 0.0299999993,          40.
   3833,  -8.84615421, 0.0299999993,          35.
   3834,  -8.84615421, 0.0299999993,          30.
   3835,  -8.84615421, 0.0299999993,          25.
   3836,  -8.84615421, 0.0299999993,          20.
   3837,  -8.84615421, 0.0299999993,          15.
   3838,  -8.84615421, 0.0299999993,          10.
   3839,  -8.84615421, 0.0299999993,           5.
   3840,  -9.61538506, 0.0299999993,          95.
   3841,  -9.61538506, 0.0299999993,          90.
   3842,  -9.61538506, 0.0299999993,          85.
   3843,  -9.61538506, 0.0299999993,          80.
   3844,  -9.61538506, 0.0299999993,          75.
   3845,  -9.61538506, 0.0299999993,          70.
   3846,  -9.61538506, 0.0299999993,          65.
   3847,  -9.61538506, 0.0299999993,          60.
   3848,  -9.61538506, 0.0299999993,          55.
   3849,  -9.61538506, 0.0299999993,          50.
   3850,  -9.61538506, 0.0299999993,          45.
   3851,  -9.61538506, 0.0299999993,          40.
   3852,  -9.61538506, 0.0299999993,          35.
   3853,  -9.61538506, 0.0299999993,          30.
   3854,  -9.61538506, 0.0299999993,          25.
   3855,  -9.61538506, 0.0299999993,          20.
   3856,  -9.61538506, 0.0299999993,          15.
   3857,  -9.61538506, 0.0299999993,          10.
   3858,  -9.61538506, 0.0299999993,           5.
   3859,  -10.3846149, 0.0299999993,          95.
   3860,  -10.3846149, 0.0299999993,          90.
   3861,  -10.3846149, 0.0299999993,          85.
   3862,  -10.3846149, 0.0299999993,          80.
   3863,  -10.3846149, 0.0299999993,          75.
   3864,  -10.3846149, 0.0299999993,          70.
   3865,  -10.3846149, 0.0299999993,          65.
   3866,  -10.3846149, 0.0299999993,          60.
   3867,  -10.3846149, 0.0299999993,          55.
   3868,  -10.3846149, 0.0299999993,          50.
   3869,  -10.3846149, 0.0299999993,          45.
   3870,  -10.3846149, 0.0299999993,          40.
   3871,  -10.3846149, 0.0299999993,          35.
   3872,  -10.3846149, 0.0299999993,          30.
   3873,  -10.3846149, 0.0299999993,          25.
   3874,  -10.3846149, 0.0299999993,          20.
   3875,  -10.3846149, 0.0299999993,          15.
   3876,  -10.3846149, 0.0299999993,          10.
   3877,  -10.3846149, 0.0299999993,           5.
   3878,  -11.1538458, 0.0299999993,          95.
   3879,  -11.1538458, 0.0299999993,          90.
   3880,  -11.1538458, 0.0299999993,          85.
   3881,  -11.1538458, 0.0299999993,          80.
   3882,  -11.1538458, 0.0299999993,          75.
   3883,  -11.1538458, 0.0299999993,          70.
   3884,  -11.1538458, 0.0299999993,          65.
   3885,  -11.1538458, 0.0299999993,          60.
   3886,  -11.1538458, 0.0299999993,          55.
   3887,  -11.1538458, 0.0299999993,          50.
   3888,  -11.1538458, 0.0299999993,          45.
   3889,  -11.1538458, 0.0299999993,          40.
   3890,  -11.1538458, 0.0299999993,          35.
   3891,  -11.1538458, 0.0299999993,          30.
   3892,  -11.1538458, 0.0299999993,          25.
   3893,  -11.1538458, 0.0299999993,          20.
   3894,  -11.1538458, 0.0299999993,          15.
   3895,  -11.1538458, 0.0299999993,          10.
   3896,  -11.1538458, 0.0299999993,           5.
   3897,  -11.9230766, 0.0299999993,          95.
   3898,  -11.9230766, 0.0299999993,          90.
   3899,  -11.9230766, 0.0299999993,          85.
   3900,  -11.9230766, 0.0299999993,          80.
   3901,  -11.9230766, 0.0299999993,          75.
   3902,  -11.9230766, 0.0299999993,          70.
   3903,  -11.9230766, 0.0299999993,          65.
   3904,  -11.9230766, 0.0299999993,          60.
   3905,  -11.9230766, 0.0299999993,          55.
   3906,  -11.9230766, 0.0299999993,          50.
   3907,  -11.9230766, 0.0299999993,          45.
   3908,  -11.9230766, 0.0299999993,          40.
   3909,  -11.9230766, 0.0299999993,          35.
   3910,  -11.9230766, 0.0299999993,          30.
   3911,  -11.9230766, 0.0299999993,          25.
   3912,  -11.9230766, 0.0299999993,          20.
   3913,  -11.9230766, 0.0299999993,          15.
   3914,  -11.9230766, 0.0299999993,          10.
   3915,  -11.9230766, 0.0299999993,           5.
   3916,  -12.6923075, 0.0299999993,          95.
   3917,  -12.6923075, 0.0299999993,          90.
   3918,  -12.6923075, 0.0299999993,          85.
   3919,  -12.6923075, 0.0299999993,          80.
   3920,  -12.6923075, 0.0299999993,          75.
   3921,  -12.6923075, 0.0299999993,          70.
   3922,  -12.6923075, 0.0299999993,          65.
   3923,  -12.6923075, 0.0299999993,          60.
   3924,  -12.6923075, 0.0299999993,          55.
   3925,  -12.6923075, 0.0299999993,          50.
   3926,  -12.6923075, 0.0299999993,          45.
   3927,  -12.6923075, 0.0299999993,          40.
   3928,  -12.6923075, 0.0299999993,          35.
   3929,  -12.6923075, 0.0299999993,          30.
   3930,  -12.6923075, 0.0299999993,          25.
   3931,  -12.6923075, 0.0299999993,          20.
   3932,  -12.6923075, 0.0299999993,          15.
   3933,  -12.6923075, 0.0299999993,          10.
   3934,  -12.6923075, 0.0299999993,           5.
   3935,  -13.4615383, 0.0299999993,          95.
   3936,  -13.4615383, 0.0299999993,          90.
   3937,  -13.4615383, 0.0299999993,          85.
   3938,  -13.4615383, 0.0299999993,          80.
   3939,  -13.4615383, 0.0299999993,          75.
   3940,  -13.4615383, 0.0299999993,          70.
   3941,  -13.4615383, 0.0299999993,          65.
   3942,  -13.4615383, 0.0299999993,          60.
   3943,  -13.4615383, 0.0299999993,          55.
   3944,  -13.4615383, 0.0299999993,          50.
   3945,  -13.4615383, 0.0299999993,          45.
   3946,  -13.4615383, 0.0299999993,          40.
   3947,  -13.4615383, 0.0299999993,          35.
   3948,  -13.4615383, 0.0299999993,          30.
   3949,  -13.4615383, 0.0299999993,          25.
   3950,  -13.4615383, 0.0299999993,          20.
   3951,  -13.4615383, 0.0299999993,          15.
   3952,  -13.4615383, 0.0299999993,          10.
   3953,  -13.4615383, 0.0299999993,           5.
   3954,  -14.2307692, 0.0299999993,          95.
   3955,  -14.2307692, 0.0299999993,          90.
   3956,  -14.2307692, 0.0299999993,          85.
   3957,  -14.2307692, 0.0299999993,          80.
   3958,  -14.2307692, 0.0299999993,          75.
   3959,  -14.2307692, 0.0299999993,          70.
   3960,  -14.2307692, 0.0299999993,          65.
   3961,  -14.2307692, 0.0299999993,          60.
   3962,  -14.2307692, 0.0299999993,          55.
   3963,  -14.2307692, 0.0299999993,          50.
   3964,  -14.2307692, 0.0299999993,          45.
   3965,  -14.2307692, 0.0299999993,          40.
   3966,  -14.2307692, 0.0299999993,          35.
   3967,  -14.2307692, 0.0299999993,          30.
   3968,  -14.2307692, 0.0299999993,          25.
   3969,  -14.2307692, 0.0299999993,          20.
   3970,  -14.2307692, 0.0299999993,          15.
   3971,  -14.2307692, 0.0299999993,          10.
   3972,  -14.2307692, 0.0299999993,           5.
   3973,       -16.25, 0.0299999993,           5.
   3974,       -16.25, 0.0299999993,          10.
   3975,       -16.25, 0.0299999993,          15.
   3976,       -16.25, 0.0299999993,          20.
   3977,       -16.25, 0.0299999993,          25.
   3978,       -16.25, 0.0299999993,          30.
   3979,       -16.25, 0.0299999993,          35.
   3980,       -16.25, 0.0299999993,          40.
   3981,       -16.25, 0.0299999993,          45.
   3982,       -16.25, 0.0299999993,          50.
   3983,       -16.25, 0.0299999993,          55.
   3984,       -16.25, 0.0299999993,          60.
   3985,       -16.25, 0.0299999993,          65.
   3986,       -16.25, 0.0299999993,          70.
   3987,       -16.25, 0.0299999993,          75.
   3988,       -16.25, 0.0299999993,          80.
   3989,       -16.25, 0.0299999993,          85.
   3990,       -16.25, 0.0299999993,          90.
   3991,       -16.25, 0.0299999993,          95.
   3992,        -17.5, 0.0299999993,           5.
   3993,        -17.5, 0.0299999993,          10.
   3994,        -17.5, 0.0299999993,          15.
   3995,        -17.5, 0.0299999993,          20.
   3996,        -17.5, 0.0299999993,          25.
   3997,        -17.5, 0.0299999993,          30.
   3998,        -17.5, 0.0299999993,          35.
   3999,        -17.5, 0.0299999993,          40.
   4000,        -17.5, 0.0299999993,          45.
   4001,        -17.5, 0.0299999993,          50.
   4002,        -17.5, 0.0299999993,          55.
   4003,        -17.5, 0.0299999993,          60.
   4004,        -17.5, 0.0299999993,          65.
   4005,        -17.5, 0.0299999993,          70.
   4006,        -17.5, 0.0299999993,          75.
   4007,        -17.5, 0.0299999993,          80.
   4008,        -17.5, 0.0299999993,          85.
   4009,        -17.5, 0.0299999993,          90.
   4010,        -17.5, 0.0299999993,          95.
   4011,       -18.75, 0.0299999993,           5.
   4012,       -18.75, 0.0299999993,          10.
   4013,       -18.75, 0.0299999993,          15.
   4014,       -18.75, 0.0299999993,          20.
   4015,       -18.75, 0.0299999993,          25.
   4016,       -18.75, 0.0299999993,          30.
   4017,       -18.75, 0.0299999993,          35.
   4018,       -18.75, 0.0299999993,          40.
   4019,       -18.75, 0.0299999993,          45.
   4020,       -18.75, 0.0299999993,          50.
   4021,       -18.75, 0.0299999993,          55.
   4022,       -18.75, 0.0299999993,          60.
   4023,       -18.75, 0.0299999993,          65.
   4024,       -18.75, 0.0299999993,          70.
   4025,       -18.75, 0.0299999993,          75.
   4026,       -18.75, 0.0299999993,          80.
   4027,       -18.75, 0.0299999993,          85.
   4028,       -18.75, 0.0299999993,          90.
   4029,       -18.75, 0.0299999993,          95.
   4030,         -20., 0.0299999993,           5.
   4031,         -20., 0.0299999993,          10.
   4032,         -20., 0.0299999993,          15.
   4033,         -20., 0.0299999993,          20.
   4034,         -20., 0.0299999993,          25.
   4035,         -20., 0.0299999993,          30.
   4036,         -20., 0.0299999993,          35.
   4037,         -20., 0.0299999993,          40.
   4038,         -20., 0.0299999993,          45.
   4039,         -20., 0.0299999993,          50.
   4040,         -20., 0.0299999993,          55.
   4041,         -20., 0.0299999993,          60.
   4042,         -20., 0.0299999993,          65.
   4043,         -20., 0.0299999993,          70.
   4044,         -20., 0.0299999993,          75.
   4045,         -20., 0.0299999993,          80.
   4046,         -20., 0.0299999993,          85.
   4047,         -20., 0.0299999993,          90.
   4048,         -20., 0.0299999993,          95.
   4049,       -21.25, 0.0299999993,           5.
   4050,       -21.25, 0.0299999993,          10.
   4051,       -21.25, 0.0299999993,          15.
   4052,       -21.25, 0.0299999993,          20.
   4053,       -21.25, 0.0299999993,          25.
   4054,       -21.25, 0.0299999993,          30.
   4055,       -21.25, 0.0299999993,          35.
   4056,       -21.25, 0.0299999993,          40.
   4057,       -21.25, 0.0299999993,          45.
   4058,       -21.25, 0.0299999993,          50.
   4059,       -21.25, 0.0299999993,          55.
   4060,       -21.25, 0.0299999993,          60.
   4061,       -21.25, 0.0299999993,          65.
   4062,       -21.25, 0.0299999993,          70.
   4063,       -21.25, 0.0299999993,          75.
   4064,       -21.25, 0.0299999993,          80.
   4065,       -21.25, 0.0299999993,          85.
   4066,       -21.25, 0.0299999993,          90.
   4067,       -21.25, 0.0299999993,          95.
   4068,        -22.5, 0.0299999993,           5.
   4069,        -22.5, 0.0299999993,          10.
   4070,        -22.5, 0.0299999993,          15.
   4071,        -22.5, 0.0299999993,          20.
   4072,        -22.5, 0.0299999993,          25.
   4073,        -22.5, 0.0299999993,          30.
   4074,        -22.5, 0.0299999993,          35.
   4075,        -22.5, 0.0299999993,          40.
   4076,        -22.5, 0.0299999993,          45.
   4077,        -22.5, 0.0299999993,          50.
   4078,        -22.5, 0.0299999993,          55.
   4079,        -22.5, 0.0299999993,          60.
   4080,        -22.5, 0.0299999993,          65.
   4081,        -22.5, 0.0299999993,          70.
   4082,        -22.5, 0.0299999993,          75.
   4083,        -22.5, 0.0299999993,          80.
   4084,        -22.5, 0.0299999993,          85.
   4085,        -22.5, 0.0299999993,          90.
   4086,        -22.5, 0.0299999993,          95.
   4087,       -23.75, 0.0299999993,           5.
   4088,       -23.75, 0.0299999993,          10.
   4089,       -23.75, 0.0299999993,          15.
   4090,       -23.75, 0.0299999993,          20.
   4091,       -23.75, 0.0299999993,          25.
   4092,       -23.75, 0.0299999993,          30.
   4093,       -23.75, 0.0299999993,          35.
   4094,       -23.75, 0.0299999993,          40.
   4095,       -23.75, 0.0299999993,          45.
   4096,       -23.75, 0.0299999993,          50.
   4097,       -23.75, 0.0299999993,          55.
   4098,       -23.75, 0.0299999993,          60.
   4099,       -23.75, 0.0299999993,          65.
   4100,       -23.75, 0.0299999993,          70.
   4101,       -23.75, 0.0299999993,          75.
   4102,       -23.75, 0.0299999993,          80.
   4103,       -23.75, 0.0299999993,          85.
   4104,       -23.75, 0.0299999993,          90.
   4105,       -23.75, 0.0299999993,          95.
   4106,         -25., 0.0299999993,           5.
   4107,         -25., 0.0299999993,          10.
   4108,         -25., 0.0299999993,          15.
   4109,         -25., 0.0299999993,          20.
   4110,         -25., 0.0299999993,          25.
   4111,         -25., 0.0299999993,          30.
   4112,         -25., 0.0299999993,          35.
   4113,         -25., 0.0299999993,          40.
   4114,         -25., 0.0299999993,          45.
   4115,         -25., 0.0299999993,          50.
   4116,         -25., 0.0299999993,          55.
   4117,         -25., 0.0299999993,          60.
   4118,         -25., 0.0299999993,          65.
   4119,         -25., 0.0299999993,          70.
   4120,         -25., 0.0299999993,          75.
   4121,         -25., 0.0299999993,          80.
   4122,         -25., 0.0299999993,          85.
   4123,         -25., 0.0299999993,          90.
   4124,         -25., 0.0299999993,          95.
   4125,       -26.25, 0.0299999993,           5.
   4126,       -26.25, 0.0299999993,          10.
   4127,       -26.25, 0.0299999993,          15.
   4128,       -26.25, 0.0299999993,          20.
   4129,       -26.25, 0.0299999993,          25.
   4130,       -26.25, 0.0299999993,          30.
   4131,       -26.25, 0.0299999993,          35.
   4132,       -26.25, 0.0299999993,          40.
   4133,       -26.25, 0.0299999993,          45.
   4134,       -26.25, 0.0299999993,          50.
   4135,       -26.25, 0.0299999993,          55.
   4136,       -26.25, 0.0299999993,          60.
   4137,       -26.25, 0.0299999993,          65.
   4138,       -26.25, 0.0299999993,          70.
   4139,       -26.25, 0.0299999993,          75.
   4140,       -26.25, 0.0299999993,          80.
   4141,       -26.25, 0.0299999993,          85.
   4142,       -26.25, 0.0299999993,          90.
   4143,       -26.25, 0.0299999993,          95.
   4144,        -27.5, 0.0299999993,           5.
   4145,        -27.5, 0.0299999993,          10.
   4146,        -27.5, 0.0299999993,          15.
   4147,        -27.5, 0.0299999993,          20.
   4148,        -27.5, 0.0299999993,          25.
   4149,        -27.5, 0.0299999993,          30.
   4150,        -27.5, 0.0299999993,          35.
   4151,        -27.5, 0.0299999993,          40.
   4152,        -27.5, 0.0299999993,          45.
   4153,        -27.5, 0.0299999993,          50.
   4154,        -27.5, 0.0299999993,          55.
   4155,        -27.5, 0.0299999993,          60.
   4156,        -27.5, 0.0299999993,          65.
   4157,        -27.5, 0.0299999993,          70.
   4158,        -27.5, 0.0299999993,          75.
   4159,        -27.5, 0.0299999993,          80.
   4160,        -27.5, 0.0299999993,          85.
   4161,        -27.5, 0.0299999993,          90.
   4162,        -27.5, 0.0299999993,          95.
   4163,       -28.75, 0.0299999993,           5.
   4164,       -28.75, 0.0299999993,          10.
   4165,       -28.75, 0.0299999993,          15.
   4166,       -28.75, 0.0299999993,          20.
   4167,       -28.75, 0.0299999993,          25.
   4168,       -28.75, 0.0299999993,          30.
   4169,       -28.75, 0.0299999993,          35.
   4170,       -28.75, 0.0299999993,          40.
   4171,       -28.75, 0.0299999993,          45.
   4172,       -28.75, 0.0299999993,          50.
   4173,       -28.75, 0.0299999993,          55.
   4174,       -28.75, 0.0299999993,          60.
   4175,       -28.75, 0.0299999993,          65.
   4176,       -28.75, 0.0299999993,          70.
   4177,       -28.75, 0.0299999993,          75.
   4178,       -28.75, 0.0299999993,          80.
   4179,       -28.75, 0.0299999993,          85.
   4180,       -28.75, 0.0299999993,          90.
   4181,       -28.75, 0.0299999993,          95.
   4182,         -30., 0.0299999993,           5.
   4183,         -30., 0.0299999993,          10.
   4184,         -30., 0.0299999993,          15.
   4185,         -30., 0.0299999993,          20.
   4186,         -30., 0.0299999993,          25.
   4187,         -30., 0.0299999993,          30.
   4188,         -30., 0.0299999993,          35.
   4189,         -30., 0.0299999993,          40.
   4190,         -30., 0.0299999993,          45.
   4191,         -30., 0.0299999993,          50.
   4192,         -30., 0.0299999993,          55.
   4193,         -30., 0.0299999993,          60.
   4194,         -30., 0.0299999993,          65.
   4195,         -30., 0.0299999993,          70.
   4196,         -30., 0.0299999993,          75.
   4197,         -30., 0.0299999993,          80.
   4198,         -30., 0.0299999993,          85.
   4199,         -30., 0.0299999993,          90.
   4200,         -30., 0.0299999993,          95.
   4201,       -31.25, 0.0299999993,           5.
   4202,       -31.25, 0.0299999993,          10.
   4203,       -31.25, 0.0299999993,          15.
   4204,       -31.25, 0.0299999993,          20.
   4205,       -31.25, 0.0299999993,          25.
   4206,       -31.25, 0.0299999993,          30.
   4207,       -31.25, 0.0299999993,          35.
   4208,       -31.25, 0.0299999993,          40.
   4209,       -31.25, 0.0299999993,          45.
   4210,       -31.25, 0.0299999993,          50.
   4211,       -31.25, 0.0299999993,          55.
   4212,       -31.25, 0.0299999993,          60.
   4213,       -31.25, 0.0299999993,          65.
   4214,       -31.25, 0.0299999993,          70.
   4215,       -31.25, 0.0299999993,          75.
   4216,       -31.25, 0.0299999993,          80.
   4217,       -31.25, 0.0299999993,          85.
   4218,       -31.25, 0.0299999993,          90.
   4219,       -31.25, 0.0299999993,          95.
   4220,        -32.5, 0.0299999993,           5.
   4221,        -32.5, 0.0299999993,          10.
   4222,        -32.5, 0.0299999993,          15.
   4223,        -32.5, 0.0299999993,          20.
   4224,        -32.5, 0.0299999993,          25.
   4225,        -32.5, 0.0299999993,          30.
   4226,        -32.5, 0.0299999993,          35.
   4227,        -32.5, 0.0299999993,          40.
   4228,        -32.5, 0.0299999993,          45.
   4229,        -32.5, 0.0299999993,          50.
   4230,        -32.5, 0.0299999993,          55.
   4231,        -32.5, 0.0299999993,          60.
   4232,        -32.5, 0.0299999993,          65.
   4233,        -32.5, 0.0299999993,          70.
   4234,        -32.5, 0.0299999993,          75.
   4235,        -32.5, 0.0299999993,          80.
   4236,        -32.5, 0.0299999993,          85.
   4237,        -32.5, 0.0299999993,          90.
   4238,        -32.5, 0.0299999993,          95.
   4239,       -33.75, 0.0299999993,           5.
   4240,       -33.75, 0.0299999993,          10.
   4241,       -33.75, 0.0299999993,          15.
   4242,       -33.75, 0.0299999993,          20.
   4243,       -33.75, 0.0299999993,          25.
   4244,       -33.75, 0.0299999993,          30.
   4245,       -33.75, 0.0299999993,          35.
   4246,       -33.75, 0.0299999993,          40.
   4247,       -33.75, 0.0299999993,          45.
   4248,       -33.75, 0.0299999993,          50.
   4249,       -33.75, 0.0299999993,          55.
   4250,       -33.75, 0.0299999993,          60.
   4251,       -33.75, 0.0299999993,          65.
   4252,       -33.75, 0.0299999993,          70.
   4253,       -33.75, 0.0299999993,          75.
   4254,       -33.75, 0.0299999993,          80.
   4255,       -33.75, 0.0299999993,          85.
   4256,       -33.75, 0.0299999993,          90.
   4257,       -33.75, 0.0299999993,          95.
   4258,       -16.25, 0.0599999987,           5.
   4259,       -16.25, 0.0599999987,          10.
   4260,       -16.25, 0.0599999987,          15.
   4261,       -16.25, 0.0599999987,          20.
   4262,       -16.25, 0.0599999987,          25.
   4263,       -16.25, 0.0599999987,          30.
   4264,       -16.25, 0.0599999987,          35.
   4265,       -16.25, 0.0599999987,          40.
   4266,       -16.25, 0.0599999987,          45.
   4267,       -16.25, 0.0599999987,          50.
   4268,       -16.25, 0.0599999987,          55.
   4269,       -16.25, 0.0599999987,          60.
   4270,       -16.25, 0.0599999987,          65.
   4271,       -16.25, 0.0599999987,          70.
   4272,       -16.25, 0.0599999987,          75.
   4273,       -16.25, 0.0599999987,          80.
   4274,       -16.25, 0.0599999987,          85.
   4275,       -16.25, 0.0599999987,          90.
   4276,       -16.25, 0.0599999987,          95.
   4277,        -17.5, 0.0599999987,           5.
   4278,        -17.5, 0.0599999987,          10.
   4279,        -17.5, 0.0599999987,          15.
   4280,        -17.5, 0.0599999987,          20.
   4281,        -17.5, 0.0599999987,          25.
   4282,        -17.5, 0.0599999987,          30.
   4283,        -17.5, 0.0599999987,          35.
   4284,        -17.5, 0.0599999987,          40.
   4285,        -17.5, 0.0599999987,          45.
   4286,        -17.5, 0.0599999987,          50.
   4287,        -17.5, 0.0599999987,          55.
   4288,        -17.5, 0.0599999987,          60.
   4289,        -17.5, 0.0599999987,          65.
   4290,        -17.5, 0.0599999987,          70.
   4291,        -17.5, 0.0599999987,          75.
   4292,        -17.5, 0.0599999987,          80.
   4293,        -17.5, 0.0599999987,          85.
   4294,        -17.5, 0.0599999987,          90.
   4295,        -17.5, 0.0599999987,          95.
   4296,       -18.75, 0.0599999987,           5.
   4297,       -18.75, 0.0599999987,          10.
   4298,       -18.75, 0.0599999987,          15.
   4299,       -18.75, 0.0599999987,          20.
   4300,       -18.75, 0.0599999987,          25.
   4301,       -18.75, 0.0599999987,          30.
   4302,       -18.75, 0.0599999987,          35.
   4303,       -18.75, 0.0599999987,          40.
   4304,       -18.75, 0.0599999987,          45.
   4305,       -18.75, 0.0599999987,          50.
   4306,       -18.75, 0.0599999987,          55.
   4307,       -18.75, 0.0599999987,          60.
   4308,       -18.75, 0.0599999987,          65.
   4309,       -18.75, 0.0599999987,          70.
   4310,       -18.75, 0.0599999987,          75.
   4311,       -18.75, 0.0599999987,          80.
   4312,       -18.75, 0.0599999987,          85.
   4313,       -18.75, 0.0599999987,          90.
   4314,       -18.75, 0.0599999987,          95.
   4315,         -20., 0.0599999987,           5.
   4316,         -20., 0.0599999987,          10.
   4317,         -20., 0.0599999987,          15.
   4318,         -20., 0.0599999987,          20.
   4319,         -20., 0.0599999987,          25.
   4320,         -20., 0.0599999987,          30.
   4321,         -20., 0.0599999987,          35.
   4322,         -20., 0.0599999987,          40.
   4323,         -20., 0.0599999987,          45.
   4324,         -20., 0.0599999987,          50.
   4325,         -20., 0.0599999987,          55.
   4326,         -20., 0.0599999987,          60.
   4327,         -20., 0.0599999987,          65.
   4328,         -20., 0.0599999987,          70.
   4329,         -20., 0.0599999987,          75.
   4330,         -20., 0.0599999987,          80.
   4331,         -20., 0.0599999987,          85.
   4332,         -20., 0.0599999987,          90.
   4333,         -20., 0.0599999987,          95.
   4334,       -21.25, 0.0599999987,           5.
   4335,       -21.25, 0.0599999987,          10.
   4336,       -21.25, 0.0599999987,          15.
   4337,       -21.25, 0.0599999987,          20.
   4338,       -21.25, 0.0599999987,          25.
   4339,       -21.25, 0.0599999987,          30.
   4340,       -21.25, 0.0599999987,          35.
   4341,       -21.25, 0.0599999987,          40.
   4342,       -21.25, 0.0599999987,          45.
   4343,       -21.25, 0.0599999987,          50.
   4344,       -21.25, 0.0599999987,          55.
   4345,       -21.25, 0.0599999987,          60.
   4346,       -21.25, 0.0599999987,          65.
   4347,       -21.25, 0.0599999987,          70.
   4348,       -21.25, 0.0599999987,          75.
   4349,       -21.25, 0.0599999987,          80.
   4350,       -21.25, 0.0599999987,          85.
   4351,       -21.25, 0.0599999987,          90.
   4352,       -21.25, 0.0599999987,          95.
   4353,        -22.5, 0.0599999987,           5.
   4354,        -22.5, 0.0599999987,          10.
   4355,        -22.5, 0.0599999987,          15.
   4356,        -22.5, 0.0599999987,          20.
   4357,        -22.5, 0.0599999987,          25.
   4358,        -22.5, 0.0599999987,          30.
   4359,        -22.5, 0.0599999987,          35.
   4360,        -22.5, 0.0599999987,          40.
   4361,        -22.5, 0.0599999987,          45.
   4362,        -22.5, 0.0599999987,          50.
   4363,        -22.5, 0.0599999987,          55.
   4364,        -22.5, 0.0599999987,          60.
   4365,        -22.5, 0.0599999987,          65.
   4366,        -22.5, 0.0599999987,          70.
   4367,        -22.5, 0.0599999987,          75.
   4368,        -22.5, 0.0599999987,          80.
   4369,        -22.5, 0.0599999987,          85.
   4370,        -22.5, 0.0599999987,          90.
   4371,        -22.5, 0.0599999987,          95.
   4372,       -23.75, 0.0599999987,           5.
   4373,       -23.75, 0.0599999987,          10.
   4374,       -23.75, 0.0599999987,          15.
   4375,       -23.75, 0.0599999987,          20.
   4376,       -23.75, 0.0599999987,          25.
   4377,       -23.75, 0.0599999987,          30.
   4378,       -23.75, 0.0599999987,          35.
   4379,       -23.75, 0.0599999987,          40.
   4380,       -23.75, 0.0599999987,          45.
   4381,       -23.75, 0.0599999987,          50.
   4382,       -23.75, 0.0599999987,          55.
   4383,       -23.75, 0.0599999987,          60.
   4384,       -23.75, 0.0599999987,          65.
   4385,       -23.75, 0.0599999987,          70.
   4386,       -23.75, 0.0599999987,          75.
   4387,       -23.75, 0.0599999987,          80.
   4388,       -23.75, 0.0599999987,          85.
   4389,       -23.75, 0.0599999987,          90.
   4390,       -23.75, 0.0599999987,          95.
   4391,         -25., 0.0599999987,           5.
   4392,         -25., 0.0599999987,          10.
   4393,         -25., 0.0599999987,          15.
   4394,         -25., 0.0599999987,          20.
   4395,         -25., 0.0599999987,          25.
   4396,         -25., 0.0599999987,          30.
   4397,         -25., 0.0599999987,          35.
   4398,         -25., 0.0599999987,          40.
   4399,         -25., 0.0599999987,          45.
   4400,         -25., 0.0599999987,          50.
   4401,         -25., 0.0599999987,          55.
   4402,         -25., 0.0599999987,          60.
   4403,         -25., 0.0599999987,          65.
   4404,         -25., 0.0599999987,          70.
   4405,         -25., 0.0599999987,          75.
   4406,         -25., 0.0599999987,          80.
   4407,         -25., 0.0599999987,          85.
   4408,         -25., 0.0599999987,          90.
   4409,         -25., 0.0599999987,          95.
   4410,       -26.25, 0.0599999987,           5.
   4411,       -26.25, 0.0599999987,          10.
   4412,       -26.25, 0.0599999987,          15.
   4413,       -26.25, 0.0599999987,          20.
   4414,       -26.25, 0.0599999987,          25.
   4415,       -26.25, 0.0599999987,          30.
   4416,       -26.25, 0.0599999987,          35.
   4417,       -26.25, 0.0599999987,          40.
   4418,       -26.25, 0.0599999987,          45.
   4419,       -26.25, 0.0599999987,          50.
   4420,       -26.25, 0.0599999987,          55.
   4421,       -26.25, 0.0599999987,          60.
   4422,       -26.25, 0.0599999987,          65.
   4423,       -26.25, 0.0599999987,          70.
   4424,       -26.25, 0.0599999987,          75.
   4425,       -26.25, 0.0599999987,          80.
   4426,       -26.25, 0.0599999987,          85.
   4427,       -26.25, 0.0599999987,          90.
   4428,       -26.25, 0.0599999987,          95.
   4429,        -27.5, 0.0599999987,           5.
   4430,        -27.5, 0.0599999987,          10.
   4431,        -27.5, 0.0599999987,          15.
   4432,        -27.5, 0.0599999987,          20.
   4433,        -27.5, 0.0599999987,          25.
   4434,        -27.5, 0.0599999987,          30.
   4435,        -27.5, 0.0599999987,          35.
   4436,        -27.5, 0.0599999987,          40.
   4437,        -27.5, 0.0599999987,          45.
   4438,        -27.5, 0.0599999987,          50.
   4439,        -27.5, 0.0599999987,          55.
   4440,        -27.5, 0.0599999987,          60.
   4441,        -27.5, 0.0599999987,          65.
   4442,        -27.5, 0.0599999987,          70.
   4443,        -27.5, 0.0599999987,          75.
   4444,        -27.5, 0.0599999987,          80.
   4445,        -27.5, 0.0599999987,          85.
   4446,        -27.5, 0.0599999987,          90.
   4447,        -27.5, 0.0599999987,          95.
   4448,       -28.75, 0.0599999987,           5.
   4449,       -28.75, 0.0599999987,          10.
   4450,       -28.75, 0.0599999987,          15.
   4451,       -28.75, 0.0599999987,          20.
   4452,       -28.75, 0.0599999987,          25.
   4453,       -28.75, 0.0599999987,          30.
   4454,       -28.75, 0.0599999987,          35.
   4455,       -28.75, 0.0599999987,          40.
   4456,       -28.75, 0.0599999987,          45.
   4457,       -28.75, 0.0599999987,          50.
   4458,       -28.75, 0.0599999987,          55.
   4459,       -28.75, 0.0599999987,          60.
   4460,       -28.75, 0.0599999987,          65.
   4461,       -28.75, 0.0599999987,          70.
   4462,       -28.75, 0.0599999987,          75.
   4463,       -28.75, 0.0599999987,          80.
   4464,       -28.75, 0.0599999987,          85.
   4465,       -28.75, 0.0599999987,          90.
   4466,       -28.75, 0.0599999987,          95.
   4467,         -30., 0.0599999987,           5.
   4468,         -30., 0.0599999987,          10.
   4469,         -30., 0.0599999987,          15.
   4470,         -30., 0.0599999987,          20.
   4471,         -30., 0.0599999987,          25.
   4472,         -30., 0.0599999987,          30.
   4473,         -30., 0.0599999987,          35.
   4474,         -30., 0.0599999987,          40.
   4475,         -30., 0.0599999987,          45.
   4476,         -30., 0.0599999987,          50.
   4477,         -30., 0.0599999987,          55.
   4478,         -30., 0.0599999987,          60.
   4479,         -30., 0.0599999987,          65.
   4480,         -30., 0.0599999987,          70.
   4481,         -30., 0.0599999987,          75.
   4482,         -30., 0.0599999987,          80.
   4483,         -30., 0.0599999987,          85.
   4484,         -30., 0.0599999987,          90.
   4485,         -30., 0.0599999987,          95.
   4486,       -31.25, 0.0599999987,           5.
   4487,       -31.25, 0.0599999987,          10.
   4488,       -31.25, 0.0599999987,          15.
   4489,       -31.25, 0.0599999987,          20.
   4490,       -31.25, 0.0599999987,          25.
   4491,       -31.25, 0.0599999987,          30.
   4492,       -31.25, 0.0599999987,          35.
   4493,       -31.25, 0.0599999987,          40.
   4494,       -31.25, 0.0599999987,          45.
   4495,       -31.25, 0.0599999987,          50.
   4496,       -31.25, 0.0599999987,          55.
   4497,       -31.25, 0.0599999987,          60.
   4498,       -31.25, 0.0599999987,          65.
   4499,       -31.25, 0.0599999987,          70.
   4500,       -31.25, 0.0599999987,          75.
   4501,       -31.25, 0.0599999987,          80.
   4502,       -31.25, 0.0599999987,          85.
   4503,       -31.25, 0.0599999987,          90.
   4504,       -31.25, 0.0599999987,          95.
   4505,        -32.5, 0.0599999987,           5.
   4506,        -32.5, 0.0599999987,          10.
   4507,        -32.5, 0.0599999987,          15.
   4508,        -32.5, 0.0599999987,          20.
   4509,        -32.5, 0.0599999987,          25.
   4510,        -32.5, 0.0599999987,          30.
   4511,        -32.5, 0.0599999987,          35.
   4512,        -32.5, 0.0599999987,          40.
   4513,        -32.5, 0.0599999987,          45.
   4514,        -32.5, 0.0599999987,          50.
   4515,        -32.5, 0.0599999987,          55.
   4516,        -32.5, 0.0599999987,          60.
   4517,        -32.5, 0.0599999987,          65.
   4518,        -32.5, 0.0599999987,          70.
   4519,        -32.5, 0.0599999987,          75.
   4520,        -32.5, 0.0599999987,          80.
   4521,        -32.5, 0.0599999987,          85.
   4522,        -32.5, 0.0599999987,          90.
   4523,        -32.5, 0.0599999987,          95.
   4524,       -33.75, 0.0599999987,           5.
   4525,       -33.75, 0.0599999987,          10.
   4526,       -33.75, 0.0599999987,          15.
   4527,       -33.75, 0.0599999987,          20.
   4528,       -33.75, 0.0599999987,          25.
   4529,       -33.75, 0.0599999987,          30.
   4530,       -33.75, 0.0599999987,          35.
   4531,       -33.75, 0.0599999987,          40.
   4532,       -33.75, 0.0599999987,          45.
   4533,       -33.75, 0.0599999987,          50.
   4534,       -33.75, 0.0599999987,          55.
   4535,       -33.75, 0.0599999987,          60.
   4536,       -33.75, 0.0599999987,          65.
   4537,       -33.75, 0.0599999987,          70.
   4538,       -33.75, 0.0599999987,          75.
   4539,       -33.75, 0.0599999987,          80.
   4540,       -33.75, 0.0599999987,          85.
   4541,       -33.75, 0.0599999987,          90.
   4542,       -33.75, 0.0599999987,          95.
   4543,       -16.25, 0.0900000036,           5.
   4544,       -16.25, 0.0900000036,          10.
   4545,       -16.25, 0.0900000036,          15.
   4546,       -16.25, 0.0900000036,          20.
   4547,       -16.25, 0.0900000036,          25.
   4548,       -16.25, 0.0900000036,          30.
   4549,       -16.25, 0.0900000036,          35.
   4550,       -16.25, 0.0900000036,          40.
   4551,       -16.25, 0.0900000036,          45.
   4552,       -16.25, 0.0900000036,          50.
   4553,       -16.25, 0.0900000036,          55.
   4554,       -16.25, 0.0900000036,          60.
   4555,       -16.25, 0.0900000036,          65.
   4556,       -16.25, 0.0900000036,          70.
   4557,       -16.25, 0.0900000036,          75.
   4558,       -16.25, 0.0900000036,          80.
   4559,       -16.25, 0.0900000036,          85.
   4560,       -16.25, 0.0900000036,          90.
   4561,       -16.25, 0.0900000036,          95.
   4562,        -17.5, 0.0900000036,           5.
   4563,        -17.5, 0.0900000036,          10.
   4564,        -17.5, 0.0900000036,          15.
   4565,        -17.5, 0.0900000036,          20.
   4566,        -17.5, 0.0900000036,          25.
   4567,        -17.5, 0.0900000036,          30.
   4568,        -17.5, 0.0900000036,          35.
   4569,        -17.5, 0.0900000036,          40.
   4570,        -17.5, 0.0900000036,          45.
   4571,        -17.5, 0.0900000036,          50.
   4572,        -17.5, 0.0900000036,          55.
   4573,        -17.5, 0.0900000036,          60.
   4574,        -17.5, 0.0900000036,          65.
   4575,        -17.5, 0.0900000036,          70.
   4576,        -17.5, 0.0900000036,          75.
   4577,        -17.5, 0.0900000036,          80.
   4578,        -17.5, 0.0900000036,          85.
   4579,        -17.5, 0.0900000036,          90.
   4580,        -17.5, 0.0900000036,          95.
   4581,       -18.75, 0.0900000036,           5.
   4582,       -18.75, 0.0900000036,          10.
   4583,       -18.75, 0.0900000036,          15.
   4584,       -18.75, 0.0900000036,          20.
   4585,       -18.75, 0.0900000036,          25.
   4586,       -18.75, 0.0900000036,          30.
   4587,       -18.75, 0.0900000036,          35.
   4588,       -18.75, 0.0900000036,          40.
   4589,       -18.75, 0.0900000036,          45.
   4590,       -18.75, 0.0900000036,          50.
   4591,       -18.75, 0.0900000036,          55.
   4592,       -18.75, 0.0900000036,          60.
   4593,       -18.75, 0.0900000036,          65.
   4594,       -18.75, 0.0900000036,          70.
   4595,       -18.75, 0.0900000036,          75.
   4596,       -18.75, 0.0900000036,          80.
   4597,       -18.75, 0.0900000036,          85.
   4598,       -18.75, 0.0900000036,          90.
   4599,       -18.75, 0.0900000036,          95.
   4600,         -20., 0.0900000036,           5.
   4601,         -20., 0.0900000036,          10.
   4602,         -20., 0.0900000036,          15.
   4603,         -20., 0.0900000036,          20.
   4604,         -20., 0.0900000036,          25.
   4605,         -20., 0.0900000036,          30.
   4606,         -20., 0.0900000036,          35.
   4607,         -20., 0.0900000036,          40.
   4608,         -20., 0.0900000036,          45.
   4609,         -20., 0.0900000036,          50.
   4610,         -20., 0.0900000036,          55.
   4611,         -20., 0.0900000036,          60.
   4612,         -20., 0.0900000036,          65.
   4613,         -20., 0.0900000036,          70.
   4614,         -20., 0.0900000036,          75.
   4615,         -20., 0.0900000036,          80.
   4616,         -20., 0.0900000036,          85.
   4617,         -20., 0.0900000036,          90.
   4618,         -20., 0.0900000036,          95.
   4619,       -21.25, 0.0900000036,           5.
   4620,       -21.25, 0.0900000036,          10.
   4621,       -21.25, 0.0900000036,          15.
   4622,       -21.25, 0.0900000036,          20.
   4623,       -21.25, 0.0900000036,          25.
   4624,       -21.25, 0.0900000036,          30.
   4625,       -21.25, 0.0900000036,          35.
   4626,       -21.25, 0.0900000036,          40.
   4627,       -21.25, 0.0900000036,          45.
   4628,       -21.25, 0.0900000036,          50.
   4629,       -21.25, 0.0900000036,          55.
   4630,       -21.25, 0.0900000036,          60.
   4631,       -21.25, 0.0900000036,          65.
   4632,       -21.25, 0.0900000036,          70.
   4633,       -21.25, 0.0900000036,          75.
   4634,       -21.25, 0.0900000036,          80.
   4635,       -21.25, 0.0900000036,          85.
   4636,       -21.25, 0.0900000036,          90.
   4637,       -21.25, 0.0900000036,          95.
   4638,        -22.5, 0.0900000036,           5.
   4639,        -22.5, 0.0900000036,          10.
   4640,        -22.5, 0.0900000036,          15.
   4641,        -22.5, 0.0900000036,          20.
   4642,        -22.5, 0.0900000036,          25.
   4643,        -22.5, 0.0900000036,          30.
   4644,        -22.5, 0.0900000036,          35.
   4645,        -22.5, 0.0900000036,          40.
   4646,        -22.5, 0.0900000036,          45.
   4647,        -22.5, 0.0900000036,          50.
   4648,        -22.5, 0.0900000036,          55.
   4649,        -22.5, 0.0900000036,          60.
   4650,        -22.5, 0.0900000036,          65.
   4651,        -22.5, 0.0900000036,          70.
   4652,        -22.5, 0.0900000036,          75.
   4653,        -22.5, 0.0900000036,          80.
   4654,        -22.5, 0.0900000036,          85.
   4655,        -22.5, 0.0900000036,          90.
   4656,        -22.5, 0.0900000036,          95.
   4657,       -23.75, 0.0900000036,           5.
   4658,       -23.75, 0.0900000036,          10.
   4659,       -23.75, 0.0900000036,          15.
   4660,       -23.75, 0.0900000036,          20.
   4661,       -23.75, 0.0900000036,          25.
   4662,       -23.75, 0.0900000036,          30.
   4663,       -23.75, 0.0900000036,          35.
   4664,       -23.75, 0.0900000036,          40.
   4665,       -23.75, 0.0900000036,          45.
   4666,       -23.75, 0.0900000036,          50.
   4667,       -23.75, 0.0900000036,          55.
   4668,       -23.75, 0.0900000036,          60.
   4669,       -23.75, 0.0900000036,          65.
   4670,       -23.75, 0.0900000036,          70.
   4671,       -23.75, 0.0900000036,          75.
   4672,       -23.75, 0.0900000036,          80.
   4673,       -23.75, 0.0900000036,          85.
   4674,       -23.75, 0.0900000036,          90.
   4675,       -23.75, 0.0900000036,          95.
   4676,         -25., 0.0900000036,           5.
   4677,         -25., 0.0900000036,          10.
   4678,         -25., 0.0900000036,          15.
   4679,         -25., 0.0900000036,          20.
   4680,         -25., 0.0900000036,          25.
   4681,         -25., 0.0900000036,          30.
   4682,         -25., 0.0900000036,          35.
   4683,         -25., 0.0900000036,          40.
   4684,         -25., 0.0900000036,          45.
   4685,         -25., 0.0900000036,          50.
   4686,         -25., 0.0900000036,          55.
   4687,         -25., 0.0900000036,          60.
   4688,         -25., 0.0900000036,          65.
   4689,         -25., 0.0900000036,          70.
   4690,         -25., 0.0900000036,          75.
   4691,         -25., 0.0900000036,          80.
   4692,         -25., 0.0900000036,          85.
   4693,         -25., 0.0900000036,          90.
   4694,         -25., 0.0900000036,          95.
   4695,       -26.25, 0.0900000036,           5.
   4696,       -26.25, 0.0900000036,          10.
   4697,       -26.25, 0.0900000036,          15.
   4698,       -26.25, 0.0900000036,          20.
   4699,       -26.25, 0.0900000036,          25.
   4700,       -26.25, 0.0900000036,          30.
   4701,       -26.25, 0.0900000036,          35.
   4702,       -26.25, 0.0900000036,          40.
   4703,       -26.25, 0.0900000036,          45.
   4704,       -26.25, 0.0900000036,          50.
   4705,       -26.25, 0.0900000036,          55.
   4706,       -26.25, 0.0900000036,          60.
   4707,       -26.25, 0.0900000036,          65.
   4708,       -26.25, 0.0900000036,          70.
   4709,       -26.25, 0.0900000036,          75.
   4710,       -26.25, 0.0900000036,          80.
   4711,       -26.25, 0.0900000036,          85.
   4712,       -26.25, 0.0900000036,          90.
   4713,       -26.25, 0.0900000036,          95.
   4714,        -27.5, 0.0900000036,           5.
   4715,        -27.5, 0.0900000036,          10.
   4716,        -27.5, 0.0900000036,          15.
   4717,        -27.5, 0.0900000036,          20.
   4718,        -27.5, 0.0900000036,          25.
   4719,        -27.5, 0.0900000036,          30.
   4720,        -27.5, 0.0900000036,          35.
   4721,        -27.5, 0.0900000036,          40.
   4722,        -27.5, 0.0900000036,          45.
   4723,        -27.5, 0.0900000036,          50.
   4724,        -27.5, 0.0900000036,          55.
   4725,        -27.5, 0.0900000036,          60.
   4726,        -27.5, 0.0900000036,          65.
   4727,        -27.5, 0.0900000036,          70.
   4728,        -27.5, 0.0900000036,          75.
   4729,        -27.5, 0.0900000036,          80.
   4730,        -27.5, 0.0900000036,          85.
   4731,        -27.5, 0.0900000036,          90.
   4732,        -27.5, 0.0900000036,          95.
   4733,       -28.75, 0.0900000036,           5.
   4734,       -28.75, 0.0900000036,          10.
   4735,       -28.75, 0.0900000036,          15.
   4736,       -28.75, 0.0900000036,          20.
   4737,       -28.75, 0.0900000036,          25.
   4738,       -28.75, 0.0900000036,          30.
   4739,       -28.75, 0.0900000036,          35.
   4740,       -28.75, 0.0900000036,          40.
   4741,       -28.75, 0.0900000036,          45.
   4742,       -28.75, 0.0900000036,          50.
   4743,       -28.75, 0.0900000036,          55.
   4744,       -28.75, 0.0900000036,          60.
   4745,       -28.75, 0.0900000036,          65.
   4746,       -28.75, 0.0900000036,          70.
   4747,       -28.75, 0.0900000036,          75.
   4748,       -28.75, 0.0900000036,          80.
   4749,       -28.75, 0.0900000036,          85.
   4750,       -28.75, 0.0900000036,          90.
   4751,       -28.75, 0.0900000036,          95.
   4752,         -30., 0.0900000036,           5.
   4753,         -30., 0.0900000036,          10.
   4754,         -30., 0.0900000036,          15.
   4755,         -30., 0.0900000036,          20.
   4756,         -30., 0.0900000036,          25.
   4757,         -30., 0.0900000036,          30.
   4758,         -30., 0.0900000036,          35.
   4759,         -30., 0.0900000036,          40.
   4760,         -30., 0.0900000036,          45.
   4761,         -30., 0.0900000036,          50.
   4762,         -30., 0.0900000036,          55.
   4763,         -30., 0.0900000036,          60.
   4764,         -30., 0.0900000036,          65.
   4765,         -30., 0.0900000036,          70.
   4766,         -30., 0.0900000036,          75.
   4767,         -30., 0.0900000036,          80.
   4768,         -30., 0.0900000036,          85.
   4769,         -30., 0.0900000036,          90.
   4770,         -30., 0.0900000036,          95.
   4771,       -31.25, 0.0900000036,           5.
   4772,       -31.25, 0.0900000036,          10.
   4773,       -31.25, 0.0900000036,          15.
   4774,       -31.25, 0.0900000036,          20.
   4775,       -31.25, 0.0900000036,          25.
   4776,       -31.25, 0.0900000036,          30.
   4777,       -31.25, 0.0900000036,          35.
   4778,       -31.25, 0.0900000036,          40.
   4779,       -31.25, 0.0900000036,          45.
   4780,       -31.25, 0.0900000036,          50.
   4781,       -31.25, 0.0900000036,          55.
   4782,       -31.25, 0.0900000036,          60.
   4783,       -31.25, 0.0900000036,          65.
   4784,       -31.25, 0.0900000036,          70.
   4785,       -31.25, 0.0900000036,          75.
   4786,       -31.25, 0.0900000036,          80.
   4787,       -31.25, 0.0900000036,          85.
   4788,       -31.25, 0.0900000036,          90.
   4789,       -31.25, 0.0900000036,          95.
   4790,        -32.5, 0.0900000036,           5.
   4791,        -32.5, 0.0900000036,          10.
   4792,        -32.5, 0.0900000036,          15.
   4793,        -32.5, 0.0900000036,          20.
   4794,        -32.5, 0.0900000036,          25.
   4795,        -32.5, 0.0900000036,          30.
   4796,        -32.5, 0.0900000036,          35.
   4797,        -32.5, 0.0900000036,          40.
   4798,        -32.5, 0.0900000036,          45.
   4799,        -32.5, 0.0900000036,          50.
   4800,        -32.5, 0.0900000036,          55.
   4801,        -32.5, 0.0900000036,          60.
   4802,        -32.5, 0.0900000036,          65.
   4803,        -32.5, 0.0900000036,          70.
   4804,        -32.5, 0.0900000036,          75.
   4805,        -32.5, 0.0900000036,          80.
   4806,        -32.5, 0.0900000036,          85.
   4807,        -32.5, 0.0900000036,          90.
   4808,        -32.5, 0.0900000036,          95.
   4809,       -33.75, 0.0900000036,           5.
   4810,       -33.75, 0.0900000036,          10.
   4811,       -33.75, 0.0900000036,          15.
   4812,       -33.75, 0.0900000036,          20.
   4813,       -33.75, 0.0900000036,          25.
   4814,       -33.75, 0.0900000036,          30.
   4815,       -33.75, 0.0900000036,          35.
   4816,       -33.75, 0.0900000036,          40.
   4817,       -33.75, 0.0900000036,          45.
   4818,       -33.75, 0.0900000036,          50.
   4819,       -33.75, 0.0900000036,          55.
   4820,       -33.75, 0.0900000036,          60.
   4821,       -33.75, 0.0900000036,          65.
   4822,       -33.75, 0.0900000036,          70.
   4823,       -33.75, 0.0900000036,          75.
   4824,       -33.75, 0.0900000036,          80.
   4825,       -33.75, 0.0900000036,          85.
   4826,       -33.75, 0.0900000036,          90.
   4827,       -33.75, 0.0900000036,          95.
   4828,       -16.25,  0.119999997,           5.
   4829,       -16.25,  0.119999997,          10.
   4830,       -16.25,  0.119999997,          15.
   4831,       -16.25,  0.119999997,          20.
   4832,       -16.25,  0.119999997,          25.
   4833,       -16.25,  0.119999997,          30.
   4834,       -16.25,  0.119999997,          35.
   4835,       -16.25,  0.119999997,          40.
   4836,       -16.25,  0.119999997,          45.
   4837,       -16.25,  0.119999997,          50.
   4838,       -16.25,  0.119999997,          55.
   4839,       -16.25,  0.119999997,          60.
   4840,       -16.25,  0.119999997,          65.
   4841,       -16.25,  0.119999997,          70.
   4842,       -16.25,  0.119999997,          75.
   4843,       -16.25,  0.119999997,          80.
   4844,       -16.25,  0.119999997,          85.
   4845,       -16.25,  0.119999997,          90.
   4846,       -16.25,  0.119999997,          95.
   4847,        -17.5,  0.119999997,           5.
   4848,        -17.5,  0.119999997,          10.
   4849,        -17.5,  0.119999997,          15.
   4850,        -17.5,  0.119999997,          20.
   4851,        -17.5,  0.119999997,          25.
   4852,        -17.5,  0.119999997,          30.
   4853,        -17.5,  0.119999997,          35.
   4854,        -17.5,  0.119999997,          40.
   4855,        -17.5,  0.119999997,          45.
   4856,        -17.5,  0.119999997,          50.
   4857,        -17.5,  0.119999997,          55.
   4858,        -17.5,  0.119999997,          60.
   4859,        -17.5,  0.119999997,          65.
   4860,        -17.5,  0.119999997,          70.
   4861,        -17.5,  0.119999997,          75.
   4862,        -17.5,  0.119999997,          80.
   4863,        -17.5,  0.119999997,          85.
   4864,        -17.5,  0.119999997,          90.
   4865,        -17.5,  0.119999997,          95.
   4866,       -18.75,  0.119999997,           5.
   4867,       -18.75,  0.119999997,          10.
   4868,       -18.75,  0.119999997,          15.
   4869,       -18.75,  0.119999997,          20.
   4870,       -18.75,  0.119999997,          25.
   4871,       -18.75,  0.119999997,          30.
   4872,       -18.75,  0.119999997,          35.
   4873,       -18.75,  0.119999997,          40.
   4874,       -18.75,  0.119999997,          45.
   4875,       -18.75,  0.119999997,          50.
   4876,       -18.75,  0.119999997,          55.
   4877,       -18.75,  0.119999997,          60.
   4878,       -18.75,  0.119999997,          65.
   4879,       -18.75,  0.119999997,          70.
   4880,       -18.75,  0.119999997,          75.
   4881,       -18.75,  0.119999997,          80.
   4882,       -18.75,  0.119999997,          85.
   4883,       -18.75,  0.119999997,          90.
   4884,       -18.75,  0.119999997,          95.
   4885,         -20.,  0.119999997,           5.
   4886,         -20.,  0.119999997,          10.
   4887,         -20.,  0.119999997,          15.
   4888,         -20.,  0.119999997,          20.
   4889,         -20.,  0.119999997,          25.
   4890,         -20.,  0.119999997,          30.
   4891,         -20.,  0.119999997,          35.
   4892,         -20.,  0.119999997,          40.
   4893,         -20.,  0.119999997,          45.
   4894,         -20.,  0.119999997,          50.
   4895,         -20.,  0.119999997,          55.
   4896,         -20.,  0.119999997,          60.
   4897,         -20.,  0.119999997,          65.
   4898,         -20.,  0.119999997,          70.
   4899,         -20.,  0.119999997,          75.
   4900,         -20.,  0.119999997,          80.
   4901,         -20.,  0.119999997,          85.
   4902,         -20.,  0.119999997,          90.
   4903,         -20.,  0.119999997,          95.
   4904,       -21.25,  0.119999997,           5.
   4905,       -21.25,  0.119999997,          10.
   4906,       -21.25,  0.119999997,          15.
   4907,       -21.25,  0.119999997,          20.
   4908,       -21.25,  0.119999997,          25.
   4909,       -21.25,  0.119999997,          30.
   4910,       -21.25,  0.119999997,          35.
   4911,       -21.25,  0.119999997,          40.
   4912,       -21.25,  0.119999997,          45.
   4913,       -21.25,  0.119999997,          50.
   4914,       -21.25,  0.119999997,          55.
   4915,       -21.25,  0.119999997,          60.
   4916,       -21.25,  0.119999997,          65.
   4917,       -21.25,  0.119999997,          70.
   4918,       -21.25,  0.119999997,          75.
   4919,       -21.25,  0.119999997,          80.
   4920,       -21.25,  0.119999997,          85.
   4921,       -21.25,  0.119999997,          90.
   4922,       -21.25,  0.119999997,          95.
   4923,        -22.5,  0.119999997,           5.
   4924,        -22.5,  0.119999997,          10.
   4925,        -22.5,  0.119999997,          15.
   4926,        -22.5,  0.119999997,          20.
   4927,        -22.5,  0.119999997,          25.
   4928,        -22.5,  0.119999997,          30.
   4929,        -22.5,  0.119999997,          35.
   4930,        -22.5,  0.119999997,          40.
   4931,        -22.5,  0.119999997,          45.
   4932,        -22.5,  0.119999997,          50.
   4933,        -22.5,  0.119999997,          55.
   4934,        -22.5,  0.119999997,          60.
   4935,        -22.5,  0.119999997,          65.
   4936,        -22.5,  0.119999997,          70.
   4937,        -22.5,  0.119999997,          75.
   4938,        -22.5,  0.119999997,          80.
   4939,        -22.5,  0.119999997,          85.
   4940,        -22.5,  0.119999997,          90.
   4941,        -22.5,  0.119999997,          95.
   4942,       -23.75,  0.119999997,           5.
   4943,       -23.75,  0.119999997,          10.
   4944,       -23.75,  0.119999997,          15.
   4945,       -23.75,  0.119999997,          20.
   4946,       -23.75,  0.119999997,          25.
   4947,       -23.75,  0.119999997,          30.
   4948,       -23.75,  0.119999997,          35.
   4949,       -23.75,  0.119999997,          40.
   4950,       -23.75,  0.119999997,          45.
   4951,       -23.75,  0.119999997,          50.
   4952,       -23.75,  0.119999997,          55.
   4953,       -23.75,  0.119999997,          60.
   4954,       -23.75,  0.119999997,          65.
   4955,       -23.75,  0.119999997,          70.
   4956,       -23.75,  0.119999997,          75.
   4957,       -23.75,  0.119999997,          80.
   4958,       -23.75,  0.119999997,          85.
   4959,       -23.75,  0.119999997,          90.
   4960,       -23.75,  0.119999997,          95.
   4961,         -25.,  0.119999997,           5.
   4962,         -25.,  0.119999997,          10.
   4963,         -25.,  0.119999997,          15.
   4964,         -25.,  0.119999997,          20.
   4965,         -25.,  0.119999997,          25.
   4966,         -25.,  0.119999997,          30.
   4967,         -25.,  0.119999997,          35.
   4968,         -25.,  0.119999997,          40.
   4969,         -25.,  0.119999997,          45.
   4970,         -25.,  0.119999997,          50.
   4971,         -25.,  0.119999997,          55.
   4972,         -25.,  0.119999997,          60.
   4973,         -25.,  0.119999997,          65.
   4974,         -25.,  0.119999997,          70.
   4975,         -25.,  0.119999997,          75.
   4976,         -25.,  0.119999997,          80.
   4977,         -25.,  0.119999997,          85.
   4978,         -25.,  0.119999997,          90.
   4979,         -25.,  0.119999997,          95.
   4980,       -26.25,  0.119999997,           5.
   4981,       -26.25,  0.119999997,          10.
   4982,       -26.25,  0.119999997,          15.
   4983,       -26.25,  0.119999997,          20.
   4984,       -26.25,  0.119999997,          25.
   4985,       -26.25,  0.119999997,          30.
   4986,       -26.25,  0.119999997,          35.
   4987,       -26.25,  0.119999997,          40.
   4988,       -26.25,  0.119999997,          45.
   4989,       -26.25,  0.119999997,          50.
   4990,       -26.25,  0.119999997,          55.
   4991,       -26.25,  0.119999997,          60.
   4992,       -26.25,  0.119999997,          65.
   4993,       -26.25,  0.119999997,          70.
   4994,       -26.25,  0.119999997,          75.
   4995,       -26.25,  0.119999997,          80.
   4996,       -26.25,  0.119999997,          85.
   4997,       -26.25,  0.119999997,          90.
   4998,       -26.25,  0.119999997,          95.
   4999,        -27.5,  0.119999997,           5.
   5000,        -27.5,  0.119999997,          10.
   5001,        -27.5,  0.119999997,          15.
   5002,        -27.5,  0.119999997,          20.
   5003,        -27.5,  0.119999997,          25.
   5004,        -27.5,  0.119999997,          30.
   5005,        -27.5,  0.119999997,          35.
   5006,        -27.5,  0.119999997,          40.
   5007,        -27.5,  0.119999997,          45.
   5008,        -27.5,  0.119999997,          50.
   5009,        -27.5,  0.119999997,          55.
   5010,        -27.5,  0.119999997,          60.
   5011,        -27.5,  0.119999997,          65.
   5012,        -27.5,  0.119999997,          70.
   5013,        -27.5,  0.119999997,          75.
   5014,        -27.5,  0.119999997,          80.
   5015,        -27.5,  0.119999997,          85.
   5016,        -27.5,  0.119999997,          90.
   5017,        -27.5,  0.119999997,          95.
   5018,       -28.75,  0.119999997,           5.
   5019,       -28.75,  0.119999997,          10.
   5020,       -28.75,  0.119999997,          15.
   5021,       -28.75,  0.119999997,          20.
   5022,       -28.75,  0.119999997,          25.
   5023,       -28.75,  0.119999997,          30.
   5024,       -28.75,  0.119999997,          35.
   5025,       -28.75,  0.119999997,          40.
   5026,       -28.75,  0.119999997,          45.
   5027,       -28.75,  0.119999997,          50.
   5028,       -28.75,  0.119999997,          55.
   5029,       -28.75,  0.119999997,          60.
   5030,       -28.75,  0.119999997,          65.
   5031,       -28.75,  0.119999997,          70.
   5032,       -28.75,  0.119999997,          75.
   5033,       -28.75,  0.119999997,          80.
   5034,       -28.75,  0.119999997,          85.
   5035,       -28.75,  0.119999997,          90.
   5036,       -28.75,  0.119999997,          95.
   5037,         -30.,  0.119999997,           5.
   5038,         -30.,  0.119999997,          10.
   5039,         -30.,  0.119999997,          15.
   5040,         -30.,  0.119999997,          20.
   5041,         -30.,  0.119999997,          25.
   5042,         -30.,  0.119999997,          30.
   5043,         -30.,  0.119999997,          35.
   5044,         -30.,  0.119999997,          40.
   5045,         -30.,  0.119999997,          45.
   5046,         -30.,  0.119999997,          50.
   5047,         -30.,  0.119999997,          55.
   5048,         -30.,  0.119999997,          60.
   5049,         -30.,  0.119999997,          65.
   5050,         -30.,  0.119999997,          70.
   5051,         -30.,  0.119999997,          75.
   5052,         -30.,  0.119999997,          80.
   5053,         -30.,  0.119999997,          85.
   5054,         -30.,  0.119999997,          90.
   5055,         -30.,  0.119999997,          95.
   5056,       -31.25,  0.119999997,           5.
   5057,       -31.25,  0.119999997,          10.
   5058,       -31.25,  0.119999997,          15.
   5059,       -31.25,  0.119999997,          20.
   5060,       -31.25,  0.119999997,          25.
   5061,       -31.25,  0.119999997,          30.
   5062,       -31.25,  0.119999997,          35.
   5063,       -31.25,  0.119999997,          40.
   5064,       -31.25,  0.119999997,          45.
   5065,       -31.25,  0.119999997,          50.
   5066,       -31.25,  0.119999997,          55.
   5067,       -31.25,  0.119999997,          60.
   5068,       -31.25,  0.119999997,          65.
   5069,       -31.25,  0.119999997,          70.
   5070,       -31.25,  0.119999997,          75.
   5071,       -31.25,  0.119999997,          80.
   5072,       -31.25,  0.119999997,          85.
   5073,       -31.25,  0.119999997,          90.
   5074,       -31.25,  0.119999997,          95.
   5075,        -32.5,  0.119999997,           5.
   5076,        -32.5,  0.119999997,          10.
   5077,        -32.5,  0.119999997,          15.
   5078,        -32.5,  0.119999997,          20.
   5079,        -32.5,  0.119999997,          25.
   5080,        -32.5,  0.119999997,          30.
   5081,        -32.5,  0.119999997,          35.
   5082,        -32.5,  0.119999997,          40.
   5083,        -32.5,  0.119999997,          45.
   5084,        -32.5,  0.119999997,          50.
   5085,        -32.5,  0.119999997,          55.
   5086,        -32.5,  0.119999997,          60.
   5087,        -32.5,  0.119999997,          65.
   5088,        -32.5,  0.119999997,          70.
   5089,        -32.5,  0.119999997,          75.
   5090,        -32.5,  0.119999997,          80.
   5091,        -32.5,  0.119999997,          85.
   5092,        -32.5,  0.119999997,          90.
   5093,        -32.5,  0.119999997,          95.
   5094,       -33.75,  0.119999997,           5.
   5095,       -33.75,  0.119999997,          10.
   5096,       -33.75,  0.119999997,          15.
   5097,       -33.75,  0.119999997,          20.
   5098,       -33.75,  0.119999997,          25.
   5099,       -33.75,  0.119999997,          30.
   5100,       -33.75,  0.119999997,          35.
   5101,       -33.75,  0.119999997,          40.
   5102,       -33.75,  0.119999997,          45.
   5103,       -33.75,  0.119999997,          50.
   5104,       -33.75,  0.119999997,          55.
   5105,       -33.75,  0.119999997,          60.
   5106,       -33.75,  0.119999997,          65.
   5107,       -33.75,  0.119999997,          70.
   5108,       -33.75,  0.119999997,          75.
   5109,       -33.75,  0.119999997,          80.
   5110,       -33.75,  0.119999997,          85.
   5111,       -33.75,  0.119999997,          90.
   5112,       -33.75,  0.119999997,          95.
   5113,        -36.5, 0.0299999993,           5.
   5114,        -36.5, 0.0299999993,          10.
   5115,        -36.5, 0.0299999993,          15.
   5116,        -36.5, 0.0299999993,          20.
   5117,        -36.5, 0.0299999993,          25.
   5118,        -36.5, 0.0299999993,          30.
   5119,        -36.5, 0.0299999993,          35.
   5120,        -36.5, 0.0299999993,          40.
   5121,        -36.5, 0.0299999993,          45.
   5122,        -36.5, 0.0299999993,          50.
   5123,        -36.5, 0.0299999993,          55.
   5124,        -36.5, 0.0299999993,          60.
   5125,        -36.5, 0.0299999993,          65.
   5126,        -36.5, 0.0299999993,          70.
   5127,        -36.5, 0.0299999993,          75.
   5128,        -36.5, 0.0299999993,          80.
   5129,        -36.5, 0.0299999993,          85.
   5130,        -36.5, 0.0299999993,          90.
   5131,        -36.5, 0.0299999993,          95.
   5132,         -38., 0.0299999993,           5.
   5133,         -38., 0.0299999993,          10.
   5134,         -38., 0.0299999993,          15.
   5135,         -38., 0.0299999993,          20.
   5136,         -38., 0.0299999993,          25.
   5137,         -38., 0.0299999993,          30.
   5138,         -38., 0.0299999993,          35.
   5139,         -38., 0.0299999993,          40.
   5140,         -38., 0.0299999993,          45.
   5141,         -38., 0.0299999993,          50.
   5142,         -38., 0.0299999993,          55.
   5143,         -38., 0.0299999993,          60.
   5144,         -38., 0.0299999993,          65.
   5145,         -38., 0.0299999993,          70.
   5146,         -38., 0.0299999993,          75.
   5147,         -38., 0.0299999993,          80.
   5148,         -38., 0.0299999993,          85.
   5149,         -38., 0.0299999993,          90.
   5150,         -38., 0.0299999993,          95.
   5151,        -39.5, 0.0299999993,           5.
   5152,        -39.5, 0.0299999993,          10.
   5153,        -39.5, 0.0299999993,          15.
   5154,        -39.5, 0.0299999993,          20.
   5155,        -39.5, 0.0299999993,          25.
   5156,        -39.5, 0.0299999993,          30.
   5157,        -39.5, 0.0299999993,          35.
   5158,        -39.5, 0.0299999993,          40.
   5159,        -39.5, 0.0299999993,          45.
   5160,        -39.5, 0.0299999993,          50.
   5161,        -39.5, 0.0299999993,          55.
   5162,        -39.5, 0.0299999993,          60.
   5163,        -39.5, 0.0299999993,          65.
   5164,        -39.5, 0.0299999993,          70.
   5165,        -39.5, 0.0299999993,          75.
   5166,        -39.5, 0.0299999993,          80.
   5167,        -39.5, 0.0299999993,          85.
   5168,        -39.5, 0.0299999993,          90.
   5169,        -39.5, 0.0299999993,          95.
   5170,         -41., 0.0299999993,           5.
   5171,         -41., 0.0299999993,          10.
   5172,         -41., 0.0299999993,          15.
   5173,         -41., 0.0299999993,          20.
   5174,         -41., 0.0299999993,          25.
   5175,         -41., 0.0299999993,          30.
   5176,         -41., 0.0299999993,          35.
   5177,         -41., 0.0299999993,          40.
   5178,         -41., 0.0299999993,          45.
   5179,         -41., 0.0299999993,          50.
   5180,         -41., 0.0299999993,          55.
   5181,         -41., 0.0299999993,          60.
   5182,         -41., 0.0299999993,          65.
   5183,         -41., 0.0299999993,          70.
   5184,         -41., 0.0299999993,          75.
   5185,         -41., 0.0299999993,          80.
   5186,         -41., 0.0299999993,          85.
   5187,         -41., 0.0299999993,          90.
   5188,         -41., 0.0299999993,          95.
   5189,        -42.5, 0.0299999993,           5.
   5190,        -42.5, 0.0299999993,          10.
   5191,        -42.5, 0.0299999993,          15.
   5192,        -42.5, 0.0299999993,          20.
   5193,        -42.5, 0.0299999993,          25.
   5194,        -42.5, 0.0299999993,          30.
   5195,        -42.5, 0.0299999993,          35.
   5196,        -42.5, 0.0299999993,          40.
   5197,        -42.5, 0.0299999993,          45.
   5198,        -42.5, 0.0299999993,          50.
   5199,        -42.5, 0.0299999993,          55.
   5200,        -42.5, 0.0299999993,          60.
   5201,        -42.5, 0.0299999993,          65.
   5202,        -42.5, 0.0299999993,          70.
   5203,        -42.5, 0.0299999993,          75.
   5204,        -42.5, 0.0299999993,          80.
   5205,        -42.5, 0.0299999993,          85.
   5206,        -42.5, 0.0299999993,          90.
   5207,        -42.5, 0.0299999993,          95.
   5208,         -44., 0.0299999993,           5.
   5209,         -44., 0.0299999993,          10.
   5210,         -44., 0.0299999993,          15.
   5211,         -44., 0.0299999993,          20.
   5212,         -44., 0.0299999993,          25.
   5213,         -44., 0.0299999993,          30.
   5214,         -44., 0.0299999993,          35.
   5215,         -44., 0.0299999993,          40.
   5216,         -44., 0.0299999993,          45.
   5217,         -44., 0.0299999993,          50.
   5218,         -44., 0.0299999993,          55.
   5219,         -44., 0.0299999993,          60.
   5220,         -44., 0.0299999993,          65.
   5221,         -44., 0.0299999993,          70.
   5222,         -44., 0.0299999993,          75.
   5223,         -44., 0.0299999993,          80.
   5224,         -44., 0.0299999993,          85.
   5225,         -44., 0.0299999993,          90.
   5226,         -44., 0.0299999993,          95.
   5227,        -45.5, 0.0299999993,           5.
   5228,        -45.5, 0.0299999993,          10.
   5229,        -45.5, 0.0299999993,          15.
   5230,        -45.5, 0.0299999993,          20.
   5231,        -45.5, 0.0299999993,          25.
   5232,        -45.5, 0.0299999993,          30.
   5233,        -45.5, 0.0299999993,          35.
   5234,        -45.5, 0.0299999993,          40.
   5235,        -45.5, 0.0299999993,          45.
   5236,        -45.5, 0.0299999993,          50.
   5237,        -45.5, 0.0299999993,          55.
   5238,        -45.5, 0.0299999993,          60.
   5239,        -45.5, 0.0299999993,          65.
   5240,        -45.5, 0.0299999993,          70.
   5241,        -45.5, 0.0299999993,          75.
   5242,        -45.5, 0.0299999993,          80.
   5243,        -45.5, 0.0299999993,          85.
   5244,        -45.5, 0.0299999993,          90.
   5245,        -45.5, 0.0299999993,          95.
   5246,         -47., 0.0299999993,           5.
   5247,         -47., 0.0299999993,          10.
   5248,         -47., 0.0299999993,          15.
   5249,         -47., 0.0299999993,          20.
   5250,         -47., 0.0299999993,          25.
   5251,         -47., 0.0299999993,          30.
   5252,         -47., 0.0299999993,          35.
   5253,         -47., 0.0299999993,          40.
   5254,         -47., 0.0299999993,          45.
   5255,         -47., 0.0299999993,          50.
   5256,         -47., 0.0299999993,          55.
   5257,         -47., 0.0299999993,          60.
   5258,         -47., 0.0299999993,          65.
   5259,         -47., 0.0299999993,          70.
   5260,         -47., 0.0299999993,          75.
   5261,         -47., 0.0299999993,          80.
   5262,         -47., 0.0299999993,          85.
   5263,         -47., 0.0299999993,          90.
   5264,         -47., 0.0299999993,          95.
   5265,        -48.5, 0.0299999993,           5.
   5266,        -48.5, 0.0299999993,          10.
   5267,        -48.5, 0.0299999993,          15.
   5268,        -48.5, 0.0299999993,          20.
   5269,        -48.5, 0.0299999993,          25.
   5270,        -48.5, 0.0299999993,          30.
   5271,        -48.5, 0.0299999993,          35.
   5272,        -48.5, 0.0299999993,          40.
   5273,        -48.5, 0.0299999993,          45.
   5274,        -48.5, 0.0299999993,          50.
   5275,        -48.5, 0.0299999993,          55.
   5276,        -48.5, 0.0299999993,          60.
   5277,        -48.5, 0.0299999993,          65.
   5278,        -48.5, 0.0299999993,          70.
   5279,        -48.5, 0.0299999993,          75.
   5280,        -48.5, 0.0299999993,          80.
   5281,        -48.5, 0.0299999993,          85.
   5282,        -48.5, 0.0299999993,          90.
   5283,        -48.5, 0.0299999993,          95.
   5284,        -36.5, 0.0599999987,           5.
   5285,        -36.5, 0.0599999987,          10.
   5286,        -36.5, 0.0599999987,          15.
   5287,        -36.5, 0.0599999987,          20.
   5288,        -36.5, 0.0599999987,          25.
   5289,        -36.5, 0.0599999987,          30.
   5290,        -36.5, 0.0599999987,          35.
   5291,        -36.5, 0.0599999987,          40.
   5292,        -36.5, 0.0599999987,          45.
   5293,        -36.5, 0.0599999987,          50.
   5294,        -36.5, 0.0599999987,          55.
   5295,        -36.5, 0.0599999987,          60.
   5296,        -36.5, 0.0599999987,          65.
   5297,        -36.5, 0.0599999987,          70.
   5298,        -36.5, 0.0599999987,          75.
   5299,        -36.5, 0.0599999987,          80.
   5300,        -36.5, 0.0599999987,          85.
   5301,        -36.5, 0.0599999987,          90.
   5302,        -36.5, 0.0599999987,          95.
   5303,         -38., 0.0599999987,           5.
   5304,         -38., 0.0599999987,          10.
   5305,         -38., 0.0599999987,          15.
   5306,         -38., 0.0599999987,          20.
   5307,         -38., 0.0599999987,          25.
   5308,         -38., 0.0599999987,          30.
   5309,         -38., 0.0599999987,          35.
   5310,         -38., 0.0599999987,          40.
   5311,         -38., 0.0599999987,          45.
   5312,         -38., 0.0599999987,          50.
   5313,         -38., 0.0599999987,          55.
   5314,         -38., 0.0599999987,          60.
   5315,         -38., 0.0599999987,          65.
   5316,         -38., 0.0599999987,          70.
   5317,         -38., 0.0599999987,          75.
   5318,         -38., 0.0599999987,          80.
   5319,         -38., 0.0599999987,          85.
   5320,         -38., 0.0599999987,          90.
   5321,         -38., 0.0599999987,          95.
   5322,        -39.5, 0.0599999987,           5.
   5323,        -39.5, 0.0599999987,          10.
   5324,        -39.5, 0.0599999987,          15.
   5325,        -39.5, 0.0599999987,          20.
   5326,        -39.5, 0.0599999987,          25.
   5327,        -39.5, 0.0599999987,          30.
   5328,        -39.5, 0.0599999987,          35.
   5329,        -39.5, 0.0599999987,          40.
   5330,        -39.5, 0.0599999987,          45.
   5331,        -39.5, 0.0599999987,          50.
   5332,        -39.5, 0.0599999987,          55.
   5333,        -39.5, 0.0599999987,          60.
   5334,        -39.5, 0.0599999987,          65.
   5335,        -39.5, 0.0599999987,          70.
   5336,        -39.5, 0.0599999987,          75.
   5337,        -39.5, 0.0599999987,          80.
   5338,        -39.5, 0.0599999987,          85.
   5339,        -39.5, 0.0599999987,          90.
   5340,        -39.5, 0.0599999987,          95.
   5341,         -41., 0.0599999987,           5.
   5342,         -41., 0.0599999987,          10.
   5343,         -41., 0.0599999987,          15.
   5344,         -41., 0.0599999987,          20.
   5345,         -41., 0.0599999987,          25.
   5346,         -41., 0.0599999987,          30.
   5347,         -41., 0.0599999987,          35.
   5348,         -41., 0.0599999987,          40.
   5349,         -41., 0.0599999987,          45.
   5350,         -41., 0.0599999987,          50.
   5351,         -41., 0.0599999987,          55.
   5352,         -41., 0.0599999987,          60.
   5353,         -41., 0.0599999987,          65.
   5354,         -41., 0.0599999987,          70.
   5355,         -41., 0.0599999987,          75.
   5356,         -41., 0.0599999987,          80.
   5357,         -41., 0.0599999987,          85.
   5358,         -41., 0.0599999987,          90.
   5359,         -41., 0.0599999987,          95.
   5360,        -42.5, 0.0599999987,           5.
   5361,        -42.5, 0.0599999987,          10.
   5362,        -42.5, 0.0599999987,          15.
   5363,        -42.5, 0.0599999987,          20.
   5364,        -42.5, 0.0599999987,          25.
   5365,        -42.5, 0.0599999987,          30.
   5366,        -42.5, 0.0599999987,          35.
   5367,        -42.5, 0.0599999987,          40.
   5368,        -42.5, 0.0599999987,          45.
   5369,        -42.5, 0.0599999987,          50.
   5370,        -42.5, 0.0599999987,          55.
   5371,        -42.5, 0.0599999987,          60.
   5372,        -42.5, 0.0599999987,          65.
   5373,        -42.5, 0.0599999987,          70.
   5374,        -42.5, 0.0599999987,          75.
   5375,        -42.5, 0.0599999987,          80.
   5376,        -42.5, 0.0599999987,          85.
   5377,        -42.5, 0.0599999987,          90.
   5378,        -42.5, 0.0599999987,          95.
   5379,         -44., 0.0599999987,           5.
   5380,         -44., 0.0599999987,          10.
   5381,         -44., 0.0599999987,          15.
   5382,         -44., 0.0599999987,          20.
   5383,         -44., 0.0599999987,          25.
   5384,         -44., 0.0599999987,          30.
   5385,         -44., 0.0599999987,          35.
   5386,         -44., 0.0599999987,          40.
   5387,         -44., 0.0599999987,          45.
   5388,         -44., 0.0599999987,          50.
   5389,         -44., 0.0599999987,          55.
   5390,         -44., 0.0599999987,          60.
   5391,         -44., 0.0599999987,          65.
   5392,         -44., 0.0599999987,          70.
   5393,         -44., 0.0599999987,          75.
   5394,         -44., 0.0599999987,          80.
   5395,         -44., 0.0599999987,          85.
   5396,         -44., 0.0599999987,          90.
   5397,         -44., 0.0599999987,          95.
   5398,        -45.5, 0.0599999987,           5.
   5399,        -45.5, 0.0599999987,          10.
   5400,        -45.5, 0.0599999987,          15.
   5401,        -45.5, 0.0599999987,          20.
   5402,        -45.5, 0.0599999987,          25.
   5403,        -45.5, 0.0599999987,          30.
   5404,        -45.5, 0.0599999987,          35.
   5405,        -45.5, 0.0599999987,          40.
   5406,        -45.5, 0.0599999987,          45.
   5407,        -45.5, 0.0599999987,          50.
   5408,        -45.5, 0.0599999987,          55.
   5409,        -45.5, 0.0599999987,          60.
   5410,        -45.5, 0.0599999987,          65.
   5411,        -45.5, 0.0599999987,          70.
   5412,        -45.5, 0.0599999987,          75.
   5413,        -45.5, 0.0599999987,          80.
   5414,        -45.5, 0.0599999987,          85.
   5415,        -45.5, 0.0599999987,          90.
   5416,        -45.5, 0.0599999987,          95.
   5417,         -47., 0.0599999987,           5.
   5418,         -47., 0.0599999987,          10.
   5419,         -47., 0.0599999987,          15.
   5420,         -47., 0.0599999987,          20.
   5421,         -47., 0.0599999987,          25.
   5422,         -47., 0.0599999987,          30.
   5423,         -47., 0.0599999987,          35.
   5424,         -47., 0.0599999987,          40.
   5425,         -47., 0.0599999987,          45.
   5426,         -47., 0.0599999987,          50.
   5427,         -47., 0.0599999987,          55.
   5428,         -47., 0.0599999987,          60.
   5429,         -47., 0.0599999987,          65.
   5430,         -47., 0.0599999987,          70.
   5431,         -47., 0.0599999987,          75.
   5432,         -47., 0.0599999987,          80.
   5433,         -47., 0.0599999987,          85.
   5434,         -47., 0.0599999987,          90.
   5435,         -47., 0.0599999987,          95.
   5436,        -48.5, 0.0599999987,           5.
   5437,        -48.5, 0.0599999987,          10.
   5438,        -48.5, 0.0599999987,          15.
   5439,        -48.5, 0.0599999987,          20.
   5440,        -48.5, 0.0599999987,          25.
   5441,        -48.5, 0.0599999987,          30.
   5442,        -48.5, 0.0599999987,          35.
   5443,        -48.5, 0.0599999987,          40.
   5444,        -48.5, 0.0599999987,          45.
   5445,        -48.5, 0.0599999987,          50.
   5446,        -48.5, 0.0599999987,          55.
   5447,        -48.5, 0.0599999987,          60.
   5448,        -48.5, 0.0599999987,          65.
   5449,        -48.5, 0.0599999987,          70.
   5450,        -48.5, 0.0599999987,          75.
   5451,        -48.5, 0.0599999987,          80.
   5452,        -48.5, 0.0599999987,          85.
   5453,        -48.5, 0.0599999987,          90.
   5454,        -48.5, 0.0599999987,          95.
   5455,        -36.5, 0.0900000036,           5.
   5456,        -36.5, 0.0900000036,          10.
   5457,        -36.5, 0.0900000036,          15.
   5458,        -36.5, 0.0900000036,          20.
   5459,        -36.5, 0.0900000036,          25.
   5460,        -36.5, 0.0900000036,          30.
   5461,        -36.5, 0.0900000036,          35.
   5462,        -36.5, 0.0900000036,          40.
   5463,        -36.5, 0.0900000036,          45.
   5464,        -36.5, 0.0900000036,          50.
   5465,        -36.5, 0.0900000036,          55.
   5466,        -36.5, 0.0900000036,          60.
   5467,        -36.5, 0.0900000036,          65.
   5468,        -36.5, 0.0900000036,          70.
   5469,        -36.5, 0.0900000036,          75.
   5470,        -36.5, 0.0900000036,          80.
   5471,        -36.5, 0.0900000036,          85.
   5472,        -36.5, 0.0900000036,          90.
   5473,        -36.5, 0.0900000036,          95.
   5474,         -38., 0.0900000036,           5.
   5475,         -38., 0.0900000036,          10.
   5476,         -38., 0.0900000036,          15.
   5477,         -38., 0.0900000036,          20.
   5478,         -38., 0.0900000036,          25.
   5479,         -38., 0.0900000036,          30.
   5480,         -38., 0.0900000036,          35.
   5481,         -38., 0.0900000036,          40.
   5482,         -38., 0.0900000036,          45.
   5483,         -38., 0.0900000036,          50.
   5484,         -38., 0.0900000036,          55.
   5485,         -38., 0.0900000036,          60.
   5486,         -38., 0.0900000036,          65.
   5487,         -38., 0.0900000036,          70.
   5488,         -38., 0.0900000036,          75.
   5489,         -38., 0.0900000036,          80.
   5490,         -38., 0.0900000036,          85.
   5491,         -38., 0.0900000036,          90.
   5492,         -38., 0.0900000036,          95.
   5493,        -39.5, 0.0900000036,           5.
   5494,        -39.5, 0.0900000036,          10.
   5495,        -39.5, 0.0900000036,          15.
   5496,        -39.5, 0.0900000036,          20.
   5497,        -39.5, 0.0900000036,          25.
   5498,        -39.5, 0.0900000036,          30.
   5499,        -39.5, 0.0900000036,          35.
   5500,        -39.5, 0.0900000036,          40.
   5501,        -39.5, 0.0900000036,          45.
   5502,        -39.5, 0.0900000036,          50.
   5503,        -39.5, 0.0900000036,          55.
   5504,        -39.5, 0.0900000036,          60.
   5505,        -39.5, 0.0900000036,          65.
   5506,        -39.5, 0.0900000036,          70.
   5507,        -39.5, 0.0900000036,          75.
   5508,        -39.5, 0.0900000036,          80.
   5509,        -39.5, 0.0900000036,          85.
   5510,        -39.5, 0.0900000036,          90.
   5511,        -39.5, 0.0900000036,          95.
   5512,         -41., 0.0900000036,           5.
   5513,         -41., 0.0900000036,          10.
   5514,         -41., 0.0900000036,          15.
   5515,         -41., 0.0900000036,          20.
   5516,         -41., 0.0900000036,          25.
   5517,         -41., 0.0900000036,          30.
   5518,         -41., 0.0900000036,          35.
   5519,         -41., 0.0900000036,          40.
   5520,         -41., 0.0900000036,          45.
   5521,         -41., 0.0900000036,          50.
   5522,         -41., 0.0900000036,          55.
   5523,         -41., 0.0900000036,          60.
   5524,         -41., 0.0900000036,          65.
   5525,         -41., 0.0900000036,          70.
   5526,         -41., 0.0900000036,          75.
   5527,         -41., 0.0900000036,          80.
   5528,         -41., 0.0900000036,          85.
   5529,         -41., 0.0900000036,          90.
   5530,         -41., 0.0900000036,          95.
   5531,        -42.5, 0.0900000036,           5.
   5532,        -42.5, 0.0900000036,          10.
   5533,        -42.5, 0.0900000036,          15.
   5534,        -42.5, 0.0900000036,          20.
   5535,        -42.5, 0.0900000036,          25.
   5536,        -42.5, 0.0900000036,          30.
   5537,        -42.5, 0.0900000036,          35.
   5538,        -42.5, 0.0900000036,          40.
   5539,        -42.5, 0.0900000036,          45.
   5540,        -42.5, 0.0900000036,          50.
   5541,        -42.5, 0.0900000036,          55.
   5542,        -42.5, 0.0900000036,          60.
   5543,        -42.5, 0.0900000036,          65.
   5544,        -42.5, 0.0900000036,          70.
   5545,        -42.5, 0.0900000036,          75.
   5546,        -42.5, 0.0900000036,          80.
   5547,        -42.5, 0.0900000036,          85.
   5548,        -42.5, 0.0900000036,          90.
   5549,        -42.5, 0.0900000036,          95.
   5550,         -44., 0.0900000036,           5.
   5551,         -44., 0.0900000036,          10.
   5552,         -44., 0.0900000036,          15.
   5553,         -44., 0.0900000036,          20.
   5554,         -44., 0.0900000036,          25.
   5555,         -44., 0.0900000036,          30.
   5556,         -44., 0.0900000036,          35.
   5557,         -44., 0.0900000036,          40.
   5558,         -44., 0.0900000036,          45.
   5559,         -44., 0.0900000036,          50.
   5560,         -44., 0.0900000036,          55.
   5561,         -44., 0.0900000036,          60.
   5562,         -44., 0.0900000036,          65.
   5563,         -44., 0.0900000036,          70.
   5564,         -44., 0.0900000036,          75.
   5565,         -44., 0.0900000036,          80.
   5566,         -44., 0.0900000036,          85.
   5567,         -44., 0.0900000036,          90.
   5568,         -44., 0.0900000036,          95.
   5569,        -45.5, 0.0900000036,           5.
   5570,        -45.5, 0.0900000036,          10.
   5571,        -45.5, 0.0900000036,          15.
   5572,        -45.5, 0.0900000036,          20.
   5573,        -45.5, 0.0900000036,          25.
   5574,        -45.5, 0.0900000036,          30.
   5575,        -45.5, 0.0900000036,          35.
   5576,        -45.5, 0.0900000036,          40.
   5577,        -45.5, 0.0900000036,          45.
   5578,        -45.5, 0.0900000036,          50.
   5579,        -45.5, 0.0900000036,          55.
   5580,        -45.5, 0.0900000036,          60.
   5581,        -45.5, 0.0900000036,          65.
   5582,        -45.5, 0.0900000036,          70.
   5583,        -45.5, 0.0900000036,          75.
   5584,        -45.5, 0.0900000036,          80.
   5585,        -45.5, 0.0900000036,          85.
   5586,        -45.5, 0.0900000036,          90.
   5587,        -45.5, 0.0900000036,          95.
   5588,         -47., 0.0900000036,           5.
   5589,         -47., 0.0900000036,          10.
   5590,         -47., 0.0900000036,          15.
   5591,         -47., 0.0900000036,          20.
   5592,         -47., 0.0900000036,          25.
   5593,         -47., 0.0900000036,          30.
   5594,         -47., 0.0900000036,          35.
   5595,         -47., 0.0900000036,          40.
   5596,         -47., 0.0900000036,          45.
   5597,         -47., 0.0900000036,          50.
   5598,         -47., 0.0900000036,          55.
   5599,         -47., 0.0900000036,          60.
   5600,         -47., 0.0900000036,          65.
   5601,         -47., 0.0900000036,          70.
   5602,         -47., 0.0900000036,          75.
   5603,         -47., 0.0900000036,          80.
   5604,         -47., 0.0900000036,          85.
   5605,         -47., 0.0900000036,          90.
   5606,         -47., 0.0900000036,          95.
   5607,        -48.5, 0.0900000036,           5.
   5608,        -48.5, 0.0900000036,          10.
   5609,        -48.5, 0.0900000036,          15.
   5610,        -48.5, 0.0900000036,          20.
   5611,        -48.5, 0.0900000036,          25.
   5612,        -48.5, 0.0900000036,          30.
   5613,        -48.5, 0.0900000036,          35.
   5614,        -48.5, 0.0900000036,          40.
   5615,        -48.5, 0.0900000036,          45.
   5616,        -48.5, 0.0900000036,          50.
   5617,        -48.5, 0.0900000036,          55.
   5618,        -48.5, 0.0900000036,          60.
   5619,        -48.5, 0.0900000036,          65.
   5620,        -48.5, 0.0900000036,          70.
   5621,        -48.5, 0.0900000036,          75.
   5622,        -48.5, 0.0900000036,          80.
   5623,        -48.5, 0.0900000036,          85.
   5624,        -48.5, 0.0900000036,          90.
   5625,        -48.5, 0.0900000036,          95.
   5626,        -36.5,  0.119999997,           5.
   5627,        -36.5,  0.119999997,          10.
   5628,        -36.5,  0.119999997,          15.
   5629,        -36.5,  0.119999997,          20.
   5630,        -36.5,  0.119999997,          25.
   5631,        -36.5,  0.119999997,          30.
   5632,        -36.5,  0.119999997,          35.
   5633,        -36.5,  0.119999997,          40.
   5634,        -36.5,  0.119999997,          45.
   5635,        -36.5,  0.119999997,          50.
   5636,        -36.5,  0.119999997,          55.
   5637,        -36.5,  0.119999997,          60.
   5638,        -36.5,  0.119999997,          65.
   5639,        -36.5,  0.119999997,          70.
   5640,        -36.5,  0.119999997,          75.
   5641,        -36.5,  0.119999997,          80.
   5642,        -36.5,  0.119999997,          85.
   5643,        -36.5,  0.119999997,          90.
   5644,        -36.5,  0.119999997,          95.
   5645,         -38.,  0.119999997,           5.
   5646,         -38.,  0.119999997,          10.
   5647,         -38.,  0.119999997,          15.
   5648,         -38.,  0.119999997,          20.
   5649,         -38.,  0.119999997,          25.
   5650,         -38.,  0.119999997,          30.
   5651,         -38.,  0.119999997,          35.
   5652,         -38.,  0.119999997,          40.
   5653,         -38.,  0.119999997,          45.
   5654,         -38.,  0.119999997,          50.
   5655,         -38.,  0.119999997,          55.
   5656,         -38.,  0.119999997,          60.
   5657,         -38.,  0.119999997,          65.
   5658,         -38.,  0.119999997,          70.
   5659,         -38.,  0.119999997,          75.
   5660,         -38.,  0.119999997,          80.
   5661,         -38.,  0.119999997,          85.
   5662,         -38.,  0.119999997,          90.
   5663,         -38.,  0.119999997,          95.
   5664,        -39.5,  0.119999997,           5.
   5665,        -39.5,  0.119999997,          10.
   5666,        -39.5,  0.119999997,          15.
   5667,        -39.5,  0.119999997,          20.
   5668,        -39.5,  0.119999997,          25.
   5669,        -39.5,  0.119999997,          30.
   5670,        -39.5,  0.119999997,          35.
   5671,        -39.5,  0.119999997,          40.
   5672,        -39.5,  0.119999997,          45.
   5673,        -39.5,  0.119999997,          50.
   5674,        -39.5,  0.119999997,          55.
   5675,        -39.5,  0.119999997,          60.
   5676,        -39.5,  0.119999997,          65.
   5677,        -39.5,  0.119999997,          70.
   5678,        -39.5,  0.119999997,          75.
   5679,        -39.5,  0.119999997,          80.
   5680,        -39.5,  0.119999997,          85.
   5681,        -39.5,  0.119999997,          90.
   5682,        -39.5,  0.119999997,          95.
   5683,         -41.,  0.119999997,           5.
   5684,         -41.,  0.119999997,          10.
   5685,         -41.,  0.119999997,          15.
   5686,         -41.,  0.119999997,          20.
   5687,         -41.,  0.119999997,          25.
   5688,         -41.,  0.119999997,          30.
   5689,         -41.,  0.119999997,          35.
   5690,         -41.,  0.119999997,          40.
   5691,         -41.,  0.119999997,          45.
   5692,         -41.,  0.119999997,          50.
   5693,         -41.,  0.119999997,          55.
   5694,         -41.,  0.119999997,          60.
   5695,         -41.,  0.119999997,          65.
   5696,         -41.,  0.119999997,          70.
   5697,         -41.,  0.119999997,          75.
   5698,         -41.,  0.119999997,          80.
   5699,         -41.,  0.119999997,          85.
   5700,         -41.,  0.119999997,          90.
   5701,         -41.,  0.119999997,          95.
   5702,        -42.5,  0.119999997,           5.
   5703,        -42.5,  0.119999997,          10.
   5704,        -42.5,  0.119999997,          15.
   5705,        -42.5,  0.119999997,          20.
   5706,        -42.5,  0.119999997,          25.
   5707,        -42.5,  0.119999997,          30.
   5708,        -42.5,  0.119999997,          35.
   5709,        -42.5,  0.119999997,          40.
   5710,        -42.5,  0.119999997,          45.
   5711,        -42.5,  0.119999997,          50.
   5712,        -42.5,  0.119999997,          55.
   5713,        -42.5,  0.119999997,          60.
   5714,        -42.5,  0.119999997,          65.
   5715,        -42.5,  0.119999997,          70.
   5716,        -42.5,  0.119999997,          75.
   5717,        -42.5,  0.119999997,          80.
   5718,        -42.5,  0.119999997,          85.
   5719,        -42.5,  0.119999997,          90.
   5720,        -42.5,  0.119999997,          95.
   5721,         -44.,  0.119999997,           5.
   5722,         -44.,  0.119999997,          10.
   5723,         -44.,  0.119999997,          15.
   5724,         -44.,  0.119999997,          20.
   5725,         -44.,  0.119999997,          25.
   5726,         -44.,  0.119999997,          30.
   5727,         -44.,  0.119999997,          35.
   5728,         -44.,  0.119999997,          40.
   5729,         -44.,  0.119999997,          45.
   5730,         -44.,  0.119999997,          50.
   5731,         -44.,  0.119999997,          55.
   5732,         -44.,  0.119999997,          60.
   5733,         -44.,  0.119999997,          65.
   5734,         -44.,  0.119999997,          70.
   5735,         -44.,  0.119999997,          75.
   5736,         -44.,  0.119999997,          80.
   5737,         -44.,  0.119999997,          85.
   5738,         -44.,  0.119999997,          90.
   5739,         -44.,  0.119999997,          95.
   5740,        -45.5,  0.119999997,           5.
   5741,        -45.5,  0.119999997,          10.
   5742,        -45.5,  0.119999997,          15.
   5743,        -45.5,  0.119999997,          20.
   5744,        -45.5,  0.119999997,          25.
   5745,        -45.5,  0.119999997,          30.
   5746,        -45.5,  0.119999997,          35.
   5747,        -45.5,  0.119999997,          40.
   5748,        -45.5,  0.119999997,          45.
   5749,        -45.5,  0.119999997,          50.
   5750,        -45.5,  0.119999997,          55.
   5751,        -45.5,  0.119999997,          60.
   5752,        -45.5,  0.119999997,          65.
   5753,        -45.5,  0.119999997,          70.
   5754,        -45.5,  0.119999997,          75.
   5755,        -45.5,  0.119999997,          80.
   5756,        -45.5,  0.119999997,          85.
   5757,        -45.5,  0.119999997,          90.
   5758,        -45.5,  0.119999997,          95.
   5759,         -47.,  0.119999997,           5.
   5760,         -47.,  0.119999997,          10.
   5761,         -47.,  0.119999997,          15.
   5762,         -47.,  0.119999997,          20.
   5763,         -47.,  0.119999997,          25.
   5764,         -47.,  0.119999997,          30.
   5765,         -47.,  0.119999997,          35.
   5766,         -47.,  0.119999997,          40.
   5767,         -47.,  0.119999997,          45.
   5768,         -47.,  0.119999997,          50.
   5769,         -47.,  0.119999997,          55.
   5770,         -47.,  0.119999997,          60.
   5771,         -47.,  0.119999997,          65.
   5772,         -47.,  0.119999997,          70.
   5773,         -47.,  0.119999997,          75.
   5774,         -47.,  0.119999997,          80.
   5775,         -47.,  0.119999997,          85.
   5776,         -47.,  0.119999997,          90.
   5777,         -47.,  0.119999997,          95.
   5778,        -48.5,  0.119999997,           5.
   5779,        -48.5,  0.119999997,          10.
   5780,        -48.5,  0.119999997,          15.
   5781,        -48.5,  0.119999997,          20.
   5782,        -48.5,  0.119999997,          25.
   5783,        -48.5,  0.119999997,          30.
   5784,        -48.5,  0.119999997,          35.
   5785,        -48.5,  0.119999997,          40.
   5786,        -48.5,  0.119999997,          45.
   5787,        -48.5,  0.119999997,          50.
   5788,        -48.5,  0.119999997,          55.
   5789,        -48.5,  0.119999997,          60.
   5790,        -48.5,  0.119999997,          65.
   5791,        -48.5,  0.119999997,          70.
   5792,        -48.5,  0.119999997,          75.
   5793,        -48.5,  0.119999997,          80.
   5794,        -48.5,  0.119999997,          85.
   5795,        -48.5,  0.119999997,          90.
   5796,        -48.5,  0.119999997,          95.
*Element, type=C3D8R
  1,  124,  645, 2757,  613,    1,   25,  461,   70
  2,  645,  646, 2758, 2757,   25,   26,  462,  461
  3,  646,  647, 2759, 2758,   26,   27,  463,  462
  4,  647,  648, 2760, 2759,   27,   28,  464,  463
  5,  648,  649, 2761, 2760,   28,   29,  465,  464
  6,  649,  650, 2762, 2761,   29,   30,  466,  465
  7,  650,  651, 2763, 2762,   30,   31,  467,  466
  8,  651,  652, 2764, 2763,   31,   32,  468,  467
  9,  652,  653, 2765, 2764,   32,   33,  469,  468
 10,  653,  654, 2766, 2765,   33,   34,  470,  469
 11,  654,  655, 2767, 2766,   34,   35,  471,  470
 12,  655,  656, 2768, 2767,   35,   36,  472,  471
 13,  656,  657, 2769, 2768,   36,   37,  473,  472
 14,  657,  658, 2770, 2769,   37,   38,  474,  473
 15,  658,  659, 2771, 2770,   38,   39,  475,  474
 16,  659,  660, 2772, 2771,   39,   40,  476,  475
 17,  660,  661, 2773, 2772,   40,   41,  477,  476
 18,  661,  662, 2774, 2773,   41,   42,  478,  477
 19,  662,  663, 2775, 2774,   42,   43,  479,  478
 20,  663,  129,  629, 2775,   43,    2,   44,  479
 21,  613, 2757, 2776,  614,   70,  461,  480,   69
 22, 2757, 2758, 2777, 2776,  461,  462,  481,  480
 23, 2758, 2759, 2778, 2777,  462,  463,  482,  481
 24, 2759, 2760, 2779, 2778,  463,  464,  483,  482
 25, 2760, 2761, 2780, 2779,  464,  465,  484,  483
 26, 2761, 2762, 2781, 2780,  465,  466,  485,  484
 27, 2762, 2763, 2782, 2781,  466,  467,  486,  485
 28, 2763, 2764, 2783, 2782,  467,  468,  487,  486
 29, 2764, 2765, 2784, 2783,  468,  469,  488,  487
 30, 2765, 2766, 2785, 2784,  469,  470,  489,  488
 31, 2766, 2767, 2786, 2785,  470,  471,  490,  489
 32, 2767, 2768, 2787, 2786,  471,  472,  491,  490
 33, 2768, 2769, 2788, 2787,  472,  473,  492,  491
 34, 2769, 2770, 2789, 2788,  473,  474,  493,  492
 35, 2770, 2771, 2790, 2789,  474,  475,  494,  493
 36, 2771, 2772, 2791, 2790,  475,  476,  495,  494
 37, 2772, 2773, 2792, 2791,  476,  477,  496,  495
 38, 2773, 2774, 2793, 2792,  477,  478,  497,  496
 39, 2774, 2775, 2794, 2793,  478,  479,  498,  497
 40, 2775,  629,  630, 2794,  479,   44,   45,  498
 41,  614, 2776, 2795,  615,   69,  480,  499,   68
 42, 2776, 2777, 2796, 2795,  480,  481,  500,  499
 43, 2777, 2778, 2797, 2796,  481,  482,  501,  500
 44, 2778, 2779, 2798, 2797,  482,  483,  502,  501
 45, 2779, 2780, 2799, 2798,  483,  484,  503,  502
 46, 2780, 2781, 2800, 2799,  484,  485,  504,  503
 47, 2781, 2782, 2801, 2800,  485,  486,  505,  504
 48, 2782, 2783, 2802, 2801,  486,  487,  506,  505
 49, 2783, 2784, 2803, 2802,  487,  488,  507,  506
 50, 2784, 2785, 2804, 2803,  488,  489,  508,  507
 51, 2785, 2786, 2805, 2804,  489,  490,  509,  508
 52, 2786, 2787, 2806, 2805,  490,  491,  510,  509
 53, 2787, 2788, 2807, 2806,  491,  492,  511,  510
 54, 2788, 2789, 2808, 2807,  492,  493,  512,  511
 55, 2789, 2790, 2809, 2808,  493,  494,  513,  512
 56, 2790, 2791, 2810, 2809,  494,  495,  514,  513
 57, 2791, 2792, 2811, 2810,  495,  496,  515,  514
 58, 2792, 2793, 2812, 2811,  496,  497,  516,  515
 59, 2793, 2794, 2813, 2812,  497,  498,  517,  516
 60, 2794,  630,  631, 2813,  498,   45,   46,  517
 61,  615, 2795, 2814,  616,   68,  499,  518,   67
 62, 2795, 2796, 2815, 2814,  499,  500,  519,  518
 63, 2796, 2797, 2816, 2815,  500,  501,  520,  519
 64, 2797, 2798, 2817, 2816,  501,  502,  521,  520
 65, 2798, 2799, 2818, 2817,  502,  503,  522,  521
 66, 2799, 2800, 2819, 2818,  503,  504,  523,  522
 67, 2800, 2801, 2820, 2819,  504,  505,  524,  523
 68, 2801, 2802, 2821, 2820,  505,  506,  525,  524
 69, 2802, 2803, 2822, 2821,  506,  507,  526,  525
 70, 2803, 2804, 2823, 2822,  507,  508,  527,  526
 71, 2804, 2805, 2824, 2823,  508,  509,  528,  527
 72, 2805, 2806, 2825, 2824,  509,  510,  529,  528
 73, 2806, 2807, 2826, 2825,  510,  511,  530,  529
 74, 2807, 2808, 2827, 2826,  511,  512,  531,  530
 75, 2808, 2809, 2828, 2827,  512,  513,  532,  531
 76, 2809, 2810, 2829, 2828,  513,  514,  533,  532
 77, 2810, 2811, 2830, 2829,  514,  515,  534,  533
 78, 2811, 2812, 2831, 2830,  515,  516,  535,  534
 79, 2812, 2813, 2832, 2831,  516,  517,  536,  535
 80, 2813,  631,  632, 2832,  517,   46,   47,  536
 81,  616, 2814,  721,  117,   67,  518,   66,    4
 82, 2814, 2815,  722,  721,  518,  519,   65,   66
 83, 2815, 2816,  723,  722,  519,  520,   64,   65
 84, 2816, 2817,  724,  723,  520,  521,   63,   64
 85, 2817, 2818,  725,  724,  521,  522,   62,   63
 86, 2818, 2819,  726,  725,  522,  523,   61,   62
 87, 2819, 2820,  727,  726,  523,  524,   60,   61
 88, 2820, 2821,  728,  727,  524,  525,   59,   60
 89, 2821, 2822,  729,  728,  525,  526,   58,   59
 90, 2822, 2823,  730,  729,  526,  527,   57,   58
 91, 2823, 2824,  731,  730,  527,  528,   56,   57
 92, 2824, 2825,  732,  731,  528,  529,   55,   56
 93, 2825, 2826,  733,  732,  529,  530,   54,   55
 94, 2826, 2827,  734,  733,  530,  531,   53,   54
 95, 2827, 2828,  735,  734,  531,  532,   52,   53
 96, 2828, 2829,  736,  735,  532,  533,   51,   52
 97, 2829, 2830,  737,  736,  533,  534,   50,   51
 98, 2830, 2831,  738,  737,  534,  535,   49,   50
 99, 2831, 2832,  739,  738,  535,  536,   48,   49
100, 2832,  632,  128,  739,  536,   47,    3,   48
101,  123,  664, 2833,  617,  124,  645, 2757,  613
102,  664,  665, 2834, 2833,  645,  646, 2758, 2757
103,  665,  666, 2835, 2834,  646,  647, 2759, 2758
104,  666,  667, 2836, 2835,  647,  648, 2760, 2759
105,  667,  668, 2837, 2836,  648,  649, 2761, 2760
106,  668,  669, 2838, 2837,  649,  650, 2762, 2761
107,  669,  670, 2839, 2838,  650,  651, 2763, 2762
108,  670,  671, 2840, 2839,  651,  652, 2764, 2763
109,  671,  672, 2841, 2840,  652,  653, 2765, 2764
110,  672,  673, 2842, 2841,  653,  654, 2766, 2765
111,  673,  674, 2843, 2842,  654,  655, 2767, 2766
112,  674,  675, 2844, 2843,  655,  656, 2768, 2767
113,  675,  676, 2845, 2844,  656,  657, 2769, 2768
114,  676,  677, 2846, 2845,  657,  658, 2770, 2769
115,  677,  678, 2847, 2846,  658,  659, 2771, 2770
116,  678,  679, 2848, 2847,  659,  660, 2772, 2771
117,  679,  680, 2849, 2848,  660,  661, 2773, 2772
118,  680,  681, 2850, 2849,  661,  662, 2774, 2773
119,  681,  682, 2851, 2850,  662,  663, 2775, 2774
120,  682,  130,  633, 2851,  663,  129,  629, 2775
121,  617, 2833, 2852,  618,  613, 2757, 2776,  614
122, 2833, 2834, 2853, 2852, 2757, 2758, 2777, 2776
123, 2834, 2835, 2854, 2853, 2758, 2759, 2778, 2777
124, 2835, 2836, 2855, 2854, 2759, 2760, 2779, 2778
125, 2836, 2837, 2856, 2855, 2760, 2761, 2780, 2779
126, 2837, 2838, 2857, 2856, 2761, 2762, 2781, 2780
127, 2838, 2839, 2858, 2857, 2762, 2763, 2782, 2781
128, 2839, 2840, 2859, 2858, 2763, 2764, 2783, 2782
129, 2840, 2841, 2860, 2859, 2764, 2765, 2784, 2783
130, 2841, 2842, 2861, 2860, 2765, 2766, 2785, 2784
131, 2842, 2843, 2862, 2861, 2766, 2767, 2786, 2785
132, 2843, 2844, 2863, 2862, 2767, 2768, 2787, 2786
133, 2844, 2845, 2864, 2863, 2768, 2769, 2788, 2787
134, 2845, 2846, 2865, 2864, 2769, 2770, 2789, 2788
135, 2846, 2847, 2866, 2865, 2770, 2771, 2790, 2789
136, 2847, 2848, 2867, 2866, 2771, 2772, 2791, 2790
137, 2848, 2849, 2868, 2867, 2772, 2773, 2792, 2791
138, 2849, 2850, 2869, 2868, 2773, 2774, 2793, 2792
139, 2850, 2851, 2870, 2869, 2774, 2775, 2794, 2793
140, 2851,  633,  634, 2870, 2775,  629,  630, 2794
141,  618, 2852, 2871,  619,  614, 2776, 2795,  615
142, 2852, 2853, 2872, 2871, 2776, 2777, 2796, 2795
143, 2853, 2854, 2873, 2872, 2777, 2778, 2797, 2796
144, 2854, 2855, 2874, 2873, 2778, 2779, 2798, 2797
145, 2855, 2856, 2875, 2874, 2779, 2780, 2799, 2798
146, 2856, 2857, 2876, 2875, 2780, 2781, 2800, 2799
147, 2857, 2858, 2877, 2876, 2781, 2782, 2801, 2800
148, 2858, 2859, 2878, 2877, 2782, 2783, 2802, 2801
149, 2859, 2860, 2879, 2878, 2783, 2784, 2803, 2802
150, 2860, 2861, 2880, 2879, 2784, 2785, 2804, 2803
151, 2861, 2862, 2881, 2880, 2785, 2786, 2805, 2804
152, 2862, 2863, 2882, 2881, 2786, 2787, 2806, 2805
153, 2863, 2864, 2883, 2882, 2787, 2788, 2807, 2806
154, 2864, 2865, 2884, 2883, 2788, 2789, 2808, 2807
155, 2865, 2866, 2885, 2884, 2789, 2790, 2809, 2808
156, 2866, 2867, 2886, 2885, 2790, 2791, 2810, 2809
157, 2867, 2868, 2887, 2886, 2791, 2792, 2811, 2810
158, 2868, 2869, 2888, 2887, 2792, 2793, 2812, 2811
159, 2869, 2870, 2889, 2888, 2793, 2794, 2813, 2812
160, 2870,  634,  635, 2889, 2794,  630,  631, 2813
161,  619, 2871, 2890,  620,  615, 2795, 2814,  616
162, 2871, 2872, 2891, 2890, 2795, 2796, 2815, 2814
163, 2872, 2873, 2892, 2891, 2796, 2797, 2816, 2815
164, 2873, 2874, 2893, 2892, 2797, 2798, 2817, 2816
165, 2874, 2875, 2894, 2893, 2798, 2799, 2818, 2817
166, 2875, 2876, 2895, 2894, 2799, 2800, 2819, 2818
167, 2876, 2877, 2896, 2895, 2800, 2801, 2820, 2819
168, 2877, 2878, 2897, 2896, 2801, 2802, 2821, 2820
169, 2878, 2879, 2898, 2897, 2802, 2803, 2822, 2821
170, 2879, 2880, 2899, 2898, 2803, 2804, 2823, 2822
171, 2880, 2881, 2900, 2899, 2804, 2805, 2824, 2823
172, 2881, 2882, 2901, 2900, 2805, 2806, 2825, 2824
173, 2882, 2883, 2902, 2901, 2806, 2807, 2826, 2825
174, 2883, 2884, 2903, 2902, 2807, 2808, 2827, 2826
175, 2884, 2885, 2904, 2903, 2808, 2809, 2828, 2827
176, 2885, 2886, 2905, 2904, 2809, 2810, 2829, 2828
177, 2886, 2887, 2906, 2905, 2810, 2811, 2830, 2829
178, 2887, 2888, 2907, 2906, 2811, 2812, 2831, 2830
179, 2888, 2889, 2908, 2907, 2812, 2813, 2832, 2831
180, 2889,  635,  636, 2908, 2813,  631,  632, 2832
181,  620, 2890,  740,  118,  616, 2814,  721,  117
182, 2890, 2891,  741,  740, 2814, 2815,  722,  721
183, 2891, 2892,  742,  741, 2815, 2816,  723,  722
184, 2892, 2893,  743,  742, 2816, 2817,  724,  723
185, 2893, 2894,  744,  743, 2817, 2818,  725,  724
186, 2894, 2895,  745,  744, 2818, 2819,  726,  725
187, 2895, 2896,  746,  745, 2819, 2820,  727,  726
188, 2896, 2897,  747,  746, 2820, 2821,  728,  727
189, 2897, 2898,  748,  747, 2821, 2822,  729,  728
190, 2898, 2899,  749,  748, 2822, 2823,  730,  729
191, 2899, 2900,  750,  749, 2823, 2824,  731,  730
192, 2900, 2901,  751,  750, 2824, 2825,  732,  731
193, 2901, 2902,  752,  751, 2825, 2826,  733,  732
194, 2902, 2903,  753,  752, 2826, 2827,  734,  733
195, 2903, 2904,  754,  753, 2827, 2828,  735,  734
196, 2904, 2905,  755,  754, 2828, 2829,  736,  735
197, 2905, 2906,  756,  755, 2829, 2830,  737,  736
198, 2906, 2907,  757,  756, 2830, 2831,  738,  737
199, 2907, 2908,  758,  757, 2831, 2832,  739,  738
200, 2908,  636,  127,  758, 2832,  632,  128,  739
201,  122,  683, 2909,  621,  123,  664, 2833,  617
202,  683,  684, 2910, 2909,  664,  665, 2834, 2833
203,  684,  685, 2911, 2910,  665,  666, 2835, 2834
204,  685,  686, 2912, 2911,  666,  667, 2836, 2835
205,  686,  687, 2913, 2912,  667,  668, 2837, 2836
206,  687,  688, 2914, 2913,  668,  669, 2838, 2837
207,  688,  689, 2915, 2914,  669,  670, 2839, 2838
208,  689,  690, 2916, 2915,  670,  671, 2840, 2839
209,  690,  691, 2917, 2916,  671,  672, 2841, 2840
210,  691,  692, 2918, 2917,  672,  673, 2842, 2841
211,  692,  693, 2919, 2918,  673,  674, 2843, 2842
212,  693,  694, 2920, 2919,  674,  675, 2844, 2843
213,  694,  695, 2921, 2920,  675,  676, 2845, 2844
214,  695,  696, 2922, 2921,  676,  677, 2846, 2845
215,  696,  697, 2923, 2922,  677,  678, 2847, 2846
216,  697,  698, 2924, 2923,  678,  679, 2848, 2847
217,  698,  699, 2925, 2924,  679,  680, 2849, 2848
218,  699,  700, 2926, 2925,  680,  681, 2850, 2849
219,  700,  701, 2927, 2926,  681,  682, 2851, 2850
220,  701,  131,  637, 2927,  682,  130,  633, 2851
221,  621, 2909, 2928,  622,  617, 2833, 2852,  618
222, 2909, 2910, 2929, 2928, 2833, 2834, 2853, 2852
223, 2910, 2911, 2930, 2929, 2834, 2835, 2854, 2853
224, 2911, 2912, 2931, 2930, 2835, 2836, 2855, 2854
225, 2912, 2913, 2932, 2931, 2836, 2837, 2856, 2855
226, 2913, 2914, 2933, 2932, 2837, 2838, 2857, 2856
227, 2914, 2915, 2934, 2933, 2838, 2839, 2858, 2857
228, 2915, 2916, 2935, 2934, 2839, 2840, 2859, 2858
229, 2916, 2917, 2936, 2935, 2840, 2841, 2860, 2859
230, 2917, 2918, 2937, 2936, 2841, 2842, 2861, 2860
231, 2918, 2919, 2938, 2937, 2842, 2843, 2862, 2861
232, 2919, 2920, 2939, 2938, 2843, 2844, 2863, 2862
233, 2920, 2921, 2940, 2939, 2844, 2845, 2864, 2863
234, 2921, 2922, 2941, 2940, 2845, 2846, 2865, 2864
235, 2922, 2923, 2942, 2941, 2846, 2847, 2866, 2865
236, 2923, 2924, 2943, 2942, 2847, 2848, 2867, 2866
237, 2924, 2925, 2944, 2943, 2848, 2849, 2868, 2867
238, 2925, 2926, 2945, 2944, 2849, 2850, 2869, 2868
239, 2926, 2927, 2946, 2945, 2850, 2851, 2870, 2869
240, 2927,  637,  638, 2946, 2851,  633,  634, 2870
241,  622, 2928, 2947,  623,  618, 2852, 2871,  619
242, 2928, 2929, 2948, 2947, 2852, 2853, 2872, 2871
243, 2929, 2930, 2949, 2948, 2853, 2854, 2873, 2872
244, 2930, 2931, 2950, 2949, 2854, 2855, 2874, 2873
245, 2931, 2932, 2951, 2950, 2855, 2856, 2875, 2874
246, 2932, 2933, 2952, 2951, 2856, 2857, 2876, 2875
247, 2933, 2934, 2953, 2952, 2857, 2858, 2877, 2876
248, 2934, 2935, 2954, 2953, 2858, 2859, 2878, 2877
249, 2935, 2936, 2955, 2954, 2859, 2860, 2879, 2878
250, 2936, 2937, 2956, 2955, 2860, 2861, 2880, 2879
251, 2937, 2938, 2957, 2956, 2861, 2862, 2881, 2880
252, 2938, 2939, 2958, 2957, 2862, 2863, 2882, 2881
253, 2939, 2940, 2959, 2958, 2863, 2864, 2883, 2882
254, 2940, 2941, 2960, 2959, 2864, 2865, 2884, 2883
255, 2941, 2942, 2961, 2960, 2865, 2866, 2885, 2884
256, 2942, 2943, 2962, 2961, 2866, 2867, 2886, 2885
257, 2943, 2944, 2963, 2962, 2867, 2868, 2887, 2886
258, 2944, 2945, 2964, 2963, 2868, 2869, 2888, 2887
259, 2945, 2946, 2965, 2964, 2869, 2870, 2889, 2888
260, 2946,  638,  639, 2965, 2870,  634,  635, 2889
261,  623, 2947, 2966,  624,  619, 2871, 2890,  620
262, 2947, 2948, 2967, 2966, 2871, 2872, 2891, 2890
263, 2948, 2949, 2968, 2967, 2872, 2873, 2892, 2891
264, 2949, 2950, 2969, 2968, 2873, 2874, 2893, 2892
265, 2950, 2951, 2970, 2969, 2874, 2875, 2894, 2893
266, 2951, 2952, 2971, 2970, 2875, 2876, 2895, 2894
267, 2952, 2953, 2972, 2971, 2876, 2877, 2896, 2895
268, 2953, 2954, 2973, 2972, 2877, 2878, 2897, 2896
269, 2954, 2955, 2974, 2973, 2878, 2879, 2898, 2897
270, 2955, 2956, 2975, 2974, 2879, 2880, 2899, 2898
271, 2956, 2957, 2976, 2975, 2880, 2881, 2900, 2899
272, 2957, 2958, 2977, 2976, 2881, 2882, 2901, 2900
273, 2958, 2959, 2978, 2977, 2882, 2883, 2902, 2901
274, 2959, 2960, 2979, 2978, 2883, 2884, 2903, 2902
275, 2960, 2961, 2980, 2979, 2884, 2885, 2904, 2903
276, 2961, 2962, 2981, 2980, 2885, 2886, 2905, 2904
277, 2962, 2963, 2982, 2981, 2886, 2887, 2906, 2905
278, 2963, 2964, 2983, 2982, 2887, 2888, 2907, 2906
279, 2964, 2965, 2984, 2983, 2888, 2889, 2908, 2907
280, 2965,  639,  640, 2984, 2889,  635,  636, 2908
281,  624, 2966,  759,  119,  620, 2890,  740,  118
282, 2966, 2967,  760,  759, 2890, 2891,  741,  740
283, 2967, 2968,  761,  760, 2891, 2892,  742,  741
284, 2968, 2969,  762,  761, 2892, 2893,  743,  742
285, 2969, 2970,  763,  762, 2893, 2894,  744,  743
286, 2970, 2971,  764,  763, 2894, 2895,  745,  744
287, 2971, 2972,  765,  764, 2895, 2896,  746,  745
288, 2972, 2973,  766,  765, 2896, 2897,  747,  746
289, 2973, 2974,  767,  766, 2897, 2898,  748,  747
290, 2974, 2975,  768,  767, 2898, 2899,  749,  748
291, 2975, 2976,  769,  768, 2899, 2900,  750,  749
292, 2976, 2977,  770,  769, 2900, 2901,  751,  750
293, 2977, 2978,  771,  770, 2901, 2902,  752,  751
294, 2978, 2979,  772,  771, 2902, 2903,  753,  752
295, 2979, 2980,  773,  772, 2903, 2904,  754,  753
296, 2980, 2981,  774,  773, 2904, 2905,  755,  754
297, 2981, 2982,  775,  774, 2905, 2906,  756,  755
298, 2982, 2983,  776,  775, 2906, 2907,  757,  756
299, 2983, 2984,  777,  776, 2907, 2908,  758,  757
300, 2984,  640,  126,  777, 2908,  636,  127,  758
301,  121,  702, 2985,  625,  122,  683, 2909,  621
302,  702,  703, 2986, 2985,  683,  684, 2910, 2909
303,  703,  704, 2987, 2986,  684,  685, 2911, 2910
304,  704,  705, 2988, 2987,  685,  686, 2912, 2911
305,  705,  706, 2989, 2988,  686,  687, 2913, 2912
306,  706,  707, 2990, 2989,  687,  688, 2914, 2913
307,  707,  708, 2991, 2990,  688,  689, 2915, 2914
308,  708,  709, 2992, 2991,  689,  690, 2916, 2915
309,  709,  710, 2993, 2992,  690,  691, 2917, 2916
310,  710,  711, 2994, 2993,  691,  692, 2918, 2917
311,  711,  712, 2995, 2994,  692,  693, 2919, 2918
312,  712,  713, 2996, 2995,  693,  694, 2920, 2919
313,  713,  714, 2997, 2996,  694,  695, 2921, 2920
314,  714,  715, 2998, 2997,  695,  696, 2922, 2921
315,  715,  716, 2999, 2998,  696,  697, 2923, 2922
316,  716,  717, 3000, 2999,  697,  698, 2924, 2923
317,  717,  718, 3001, 3000,  698,  699, 2925, 2924
318,  718,  719, 3002, 3001,  699,  700, 2926, 2925
319,  719,  720, 3003, 3002,  700,  701, 2927, 2926
320,  720,  132,  641, 3003,  701,  131,  637, 2927
321,  625, 2985, 3004,  626,  621, 2909, 2928,  622
322, 2985, 2986, 3005, 3004, 2909, 2910, 2929, 2928
323, 2986, 2987, 3006, 3005, 2910, 2911, 2930, 2929
324, 2987, 2988, 3007, 3006, 2911, 2912, 2931, 2930
325, 2988, 2989, 3008, 3007, 2912, 2913, 2932, 2931
326, 2989, 2990, 3009, 3008, 2913, 2914, 2933, 2932
327, 2990, 2991, 3010, 3009, 2914, 2915, 2934, 2933
328, 2991, 2992, 3011, 3010, 2915, 2916, 2935, 2934
329, 2992, 2993, 3012, 3011, 2916, 2917, 2936, 2935
330, 2993, 2994, 3013, 3012, 2917, 2918, 2937, 2936
331, 2994, 2995, 3014, 3013, 2918, 2919, 2938, 2937
332, 2995, 2996, 3015, 3014, 2919, 2920, 2939, 2938
333, 2996, 2997, 3016, 3015, 2920, 2921, 2940, 2939
334, 2997, 2998, 3017, 3016, 2921, 2922, 2941, 2940
335, 2998, 2999, 3018, 3017, 2922, 2923, 2942, 2941
336, 2999, 3000, 3019, 3018, 2923, 2924, 2943, 2942
337, 3000, 3001, 3020, 3019, 2924, 2925, 2944, 2943
338, 3001, 3002, 3021, 3020, 2925, 2926, 2945, 2944
339, 3002, 3003, 3022, 3021, 2926, 2927, 2946, 2945
340, 3003,  641,  642, 3022, 2927,  637,  638, 2946
341,  626, 3004, 3023,  627,  622, 2928, 2947,  623
342, 3004, 3005, 3024, 3023, 2928, 2929, 2948, 2947
343, 3005, 3006, 3025, 3024, 2929, 2930, 2949, 2948
344, 3006, 3007, 3026, 3025, 2930, 2931, 2950, 2949
345, 3007, 3008, 3027, 3026, 2931, 2932, 2951, 2950
346, 3008, 3009, 3028, 3027, 2932, 2933, 2952, 2951
347, 3009, 3010, 3029, 3028, 2933, 2934, 2953, 2952
348, 3010, 3011, 3030, 3029, 2934, 2935, 2954, 2953
349, 3011, 3012, 3031, 3030, 2935, 2936, 2955, 2954
350, 3012, 3013, 3032, 3031, 2936, 2937, 2956, 2955
351, 3013, 3014, 3033, 3032, 2937, 2938, 2957, 2956
352, 3014, 3015, 3034, 3033, 2938, 2939, 2958, 2957
353, 3015, 3016, 3035, 3034, 2939, 2940, 2959, 2958
354, 3016, 3017, 3036, 3035, 2940, 2941, 2960, 2959
355, 3017, 3018, 3037, 3036, 2941, 2942, 2961, 2960
356, 3018, 3019, 3038, 3037, 2942, 2943, 2962, 2961
357, 3019, 3020, 3039, 3038, 2943, 2944, 2963, 2962
358, 3020, 3021, 3040, 3039, 2944, 2945, 2964, 2963
359, 3021, 3022, 3041, 3040, 2945, 2946, 2965, 2964
360, 3022,  642,  643, 3041, 2946,  638,  639, 2965
361,  627, 3023, 3042,  628,  623, 2947, 2966,  624
362, 3023, 3024, 3043, 3042, 2947, 2948, 2967, 2966
363, 3024, 3025, 3044, 3043, 2948, 2949, 2968, 2967
364, 3025, 3026, 3045, 3044, 2949, 2950, 2969, 2968
365, 3026, 3027, 3046, 3045, 2950, 2951, 2970, 2969
366, 3027, 3028, 3047, 3046, 2951, 2952, 2971, 2970
367, 3028, 3029, 3048, 3047, 2952, 2953, 2972, 2971
368, 3029, 3030, 3049, 3048, 2953, 2954, 2973, 2972
369, 3030, 3031, 3050, 3049, 2954, 2955, 2974, 2973
370, 3031, 3032, 3051, 3050, 2955, 2956, 2975, 2974
371, 3032, 3033, 3052, 3051, 2956, 2957, 2976, 2975
372, 3033, 3034, 3053, 3052, 2957, 2958, 2977, 2976
373, 3034, 3035, 3054, 3053, 2958, 2959, 2978, 2977
374, 3035, 3036, 3055, 3054, 2959, 2960, 2979, 2978
375, 3036, 3037, 3056, 3055, 2960, 2961, 2980, 2979
376, 3037, 3038, 3057, 3056, 2961, 2962, 2981, 2980
377, 3038, 3039, 3058, 3057, 2962, 2963, 2982, 2981
378, 3039, 3040, 3059, 3058, 2963, 2964, 2983, 2982
379, 3040, 3041, 3060, 3059, 2964, 2965, 2984, 2983
380, 3041,  643,  644, 3060, 2965,  639,  640, 2984
381,  628, 3042,  778,  120,  624, 2966,  759,  119
382, 3042, 3043,  779,  778, 2966, 2967,  760,  759
383, 3043, 3044,  780,  779, 2967, 2968,  761,  760
384, 3044, 3045,  781,  780, 2968, 2969,  762,  761
385, 3045, 3046,  782,  781, 2969, 2970,  763,  762
386, 3046, 3047,  783,  782, 2970, 2971,  764,  763
387, 3047, 3048,  784,  783, 2971, 2972,  765,  764
388, 3048, 3049,  785,  784, 2972, 2973,  766,  765
389, 3049, 3050,  786,  785, 2973, 2974,  767,  766
390, 3050, 3051,  787,  786, 2974, 2975,  768,  767
391, 3051, 3052,  788,  787, 2975, 2976,  769,  768
392, 3052, 3053,  789,  788, 2976, 2977,  770,  769
393, 3053, 3054,  790,  789, 2977, 2978,  771,  770
394, 3054, 3055,  791,  790, 2978, 2979,  772,  771
395, 3055, 3056,  792,  791, 2979, 2980,  773,  772
396, 3056, 3057,  793,  792, 2980, 2981,  774,  773
397, 3057, 3058,  794,  793, 2981, 2982,  775,  774
398, 3058, 3059,  795,  794, 2982, 2983,  776,  775
399, 3059, 3060,  796,  795, 2983, 2984,  777,  776
400, 3060,  644,  125,  796, 2984,  640,  126,  777
401,    8,   89,  537,  113,  121,  702, 2985,  625
402,   89,   88,  538,  537,  702,  703, 2986, 2985
403,   88,   87,  539,  538,  703,  704, 2987, 2986
404,   87,   86,  540,  539,  704,  705, 2988, 2987
405,   86,   85,  541,  540,  705,  706, 2989, 2988
406,   85,   84,  542,  541,  706,  707, 2990, 2989
407,   84,   83,  543,  542,  707,  708, 2991, 2990
408,   83,   82,  544,  543,  708,  709, 2992, 2991
409,   82,   81,  545,  544,  709,  710, 2993, 2992
410,   81,   80,  546,  545,  710,  711, 2994, 2993
411,   80,   79,  547,  546,  711,  712, 2995, 2994
412,   79,   78,  548,  547,  712,  713, 2996, 2995
413,   78,   77,  549,  548,  713,  714, 2997, 2996
414,   77,   76,  550,  549,  714,  715, 2998, 2997
415,   76,   75,  551,  550,  715,  716, 2999, 2998
416,   75,   74,  552,  551,  716,  717, 3000, 2999
417,   74,   73,  553,  552,  717,  718, 3001, 3000
418,   73,   72,  554,  553,  718,  719, 3002, 3001
419,   72,   71,  555,  554,  719,  720, 3003, 3002
420,   71,    5,   93,  555,  720,  132,  641, 3003
421,  113,  537,  556,  114,  625, 2985, 3004,  626
422,  537,  538,  557,  556, 2985, 2986, 3005, 3004
423,  538,  539,  558,  557, 2986, 2987, 3006, 3005
424,  539,  540,  559,  558, 2987, 2988, 3007, 3006
425,  540,  541,  560,  559, 2988, 2989, 3008, 3007
426,  541,  542,  561,  560, 2989, 2990, 3009, 3008
427,  542,  543,  562,  561, 2990, 2991, 3010, 3009
428,  543,  544,  563,  562, 2991, 2992, 3011, 3010
429,  544,  545,  564,  563, 2992, 2993, 3012, 3011
430,  545,  546,  565,  564, 2993, 2994, 3013, 3012
431,  546,  547,  566,  565, 2994, 2995, 3014, 3013
432,  547,  548,  567,  566, 2995, 2996, 3015, 3014
433,  548,  549,  568,  567, 2996, 2997, 3016, 3015
434,  549,  550,  569,  568, 2997, 2998, 3017, 3016
435,  550,  551,  570,  569, 2998, 2999, 3018, 3017
436,  551,  552,  571,  570, 2999, 3000, 3019, 3018
437,  552,  553,  572,  571, 3000, 3001, 3020, 3019
438,  553,  554,  573,  572, 3001, 3002, 3021, 3020
439,  554,  555,  574,  573, 3002, 3003, 3022, 3021
440,  555,   93,   92,  574, 3003,  641,  642, 3022
441,  114,  556,  575,  115,  626, 3004, 3023,  627
442,  556,  557,  576,  575, 3004, 3005, 3024, 3023
443,  557,  558,  577,  576, 3005, 3006, 3025, 3024
444,  558,  559,  578,  577, 3006, 3007, 3026, 3025
445,  559,  560,  579,  578, 3007, 3008, 3027, 3026
446,  560,  561,  580,  579, 3008, 3009, 3028, 3027
447,  561,  562,  581,  580, 3009, 3010, 3029, 3028
448,  562,  563,  582,  581, 3010, 3011, 3030, 3029
449,  563,  564,  583,  582, 3011, 3012, 3031, 3030
450,  564,  565,  584,  583, 3012, 3013, 3032, 3031
451,  565,  566,  585,  584, 3013, 3014, 3033, 3032
452,  566,  567,  586,  585, 3014, 3015, 3034, 3033
453,  567,  568,  587,  586, 3015, 3016, 3035, 3034
454,  568,  569,  588,  587, 3016, 3017, 3036, 3035
455,  569,  570,  589,  588, 3017, 3018, 3037, 3036
456,  570,  571,  590,  589, 3018, 3019, 3038, 3037
457,  571,  572,  591,  590, 3019, 3020, 3039, 3038
458,  572,  573,  592,  591, 3020, 3021, 3040, 3039
459,  573,  574,  593,  592, 3021, 3022, 3041, 3040
460,  574,   92,   91,  593, 3022,  642,  643, 3041
461,  115,  575,  594,  116,  627, 3023, 3042,  628
462,  575,  576,  595,  594, 3023, 3024, 3043, 3042
463,  576,  577,  596,  595, 3024, 3025, 3044, 3043
464,  577,  578,  597,  596, 3025, 3026, 3045, 3044
465,  578,  579,  598,  597, 3026, 3027, 3046, 3045
466,  579,  580,  599,  598, 3027, 3028, 3047, 3046
467,  580,  581,  600,  599, 3028, 3029, 3048, 3047
468,  581,  582,  601,  600, 3029, 3030, 3049, 3048
469,  582,  583,  602,  601, 3030, 3031, 3050, 3049
470,  583,  584,  603,  602, 3031, 3032, 3051, 3050
471,  584,  585,  604,  603, 3032, 3033, 3052, 3051
472,  585,  586,  605,  604, 3033, 3034, 3053, 3052
473,  586,  587,  606,  605, 3034, 3035, 3054, 3053
474,  587,  588,  607,  606, 3035, 3036, 3055, 3054
475,  588,  589,  608,  607, 3036, 3037, 3056, 3055
476,  589,  590,  609,  608, 3037, 3038, 3057, 3056
477,  590,  591,  610,  609, 3038, 3039, 3058, 3057
478,  591,  592,  611,  610, 3039, 3040, 3059, 3058
479,  592,  593,  612,  611, 3040, 3041, 3060, 3059
480,  593,   91,   90,  612, 3041,  643,  644, 3060
481,  116,  594,   94,    7,  628, 3042,  778,  120
482,  594,  595,   95,   94, 3042, 3043,  779,  778
483,  595,  596,   96,   95, 3043, 3044,  780,  779
484,  596,  597,   97,   96, 3044, 3045,  781,  780
485,  597,  598,   98,   97, 3045, 3046,  782,  781
486,  598,  599,   99,   98, 3046, 3047,  783,  782
487,  599,  600,  100,   99, 3047, 3048,  784,  783
488,  600,  601,  101,  100, 3048, 3049,  785,  784
489,  601,  602,  102,  101, 3049, 3050,  786,  785
490,  602,  603,  103,  102, 3050, 3051,  787,  786
491,  603,  604,  104,  103, 3051, 3052,  788,  787
492,  604,  605,  105,  104, 3052, 3053,  789,  788
493,  605,  606,  106,  105, 3053, 3054,  790,  789
494,  606,  607,  107,  106, 3054, 3055,  791,  790
495,  607,  608,  108,  107, 3055, 3056,  792,  791
496,  608,  609,  109,  108, 3056, 3057,  793,  792
497,  609,  610,  110,  109, 3057, 3058,  794,  793
498,  610,  611,  111,  110, 3058, 3059,  795,  794
499,  611,  612,  112,  111, 3059, 3060,  796,  795
500,  612,   90,    6,  112, 3060,  644,  125,  796
 501,  117,  721, 3061, 1253,    4,   66,  797,  175
 502,  721,  722, 3062, 3061,   66,   65,  798,  797
 503,  722,  723, 3063, 3062,   65,   64,  799,  798
 504,  723,  724, 3064, 3063,   64,   63,  800,  799
 505,  724,  725, 3065, 3064,   63,   62,  801,  800
 506,  725,  726, 3066, 3065,   62,   61,  802,  801
 507,  726,  727, 3067, 3066,   61,   60,  803,  802
 508,  727,  728, 3068, 3067,   60,   59,  804,  803
 509,  728,  729, 3069, 3068,   59,   58,  805,  804
 510,  729,  730, 3070, 3069,   58,   57,  806,  805
 511,  730,  731, 3071, 3070,   57,   56,  807,  806
 512,  731,  732, 3072, 3071,   56,   55,  808,  807
 513,  732,  733, 3073, 3072,   55,   54,  809,  808
 514,  733,  734, 3074, 3073,   54,   53,  810,  809
 515,  734,  735, 3075, 3074,   53,   52,  811,  810
 516,  735,  736, 3076, 3075,   52,   51,  812,  811
 517,  736,  737, 3077, 3076,   51,   50,  813,  812
 518,  737,  738, 3078, 3077,   50,   49,  814,  813
 519,  738,  739, 3079, 3078,   49,   48,  815,  814
 520,  739,  128, 1301, 3079,   48,    3,  133,  815
 521, 1253, 3061, 3080, 1254,  175,  797,  816,  174
 522, 3061, 3062, 3081, 3080,  797,  798,  817,  816
 523, 3062, 3063, 3082, 3081,  798,  799,  818,  817
 524, 3063, 3064, 3083, 3082,  799,  800,  819,  818
 525, 3064, 3065, 3084, 3083,  800,  801,  820,  819
 526, 3065, 3066, 3085, 3084,  801,  802,  821,  820
 527, 3066, 3067, 3086, 3085,  802,  803,  822,  821
 528, 3067, 3068, 3087, 3086,  803,  804,  823,  822
 529, 3068, 3069, 3088, 3087,  804,  805,  824,  823
 530, 3069, 3070, 3089, 3088,  805,  806,  825,  824
 531, 3070, 3071, 3090, 3089,  806,  807,  826,  825
 532, 3071, 3072, 3091, 3090,  807,  808,  827,  826
 533, 3072, 3073, 3092, 3091,  808,  809,  828,  827
 534, 3073, 3074, 3093, 3092,  809,  810,  829,  828
 535, 3074, 3075, 3094, 3093,  810,  811,  830,  829
 536, 3075, 3076, 3095, 3094,  811,  812,  831,  830
 537, 3076, 3077, 3096, 3095,  812,  813,  832,  831
 538, 3077, 3078, 3097, 3096,  813,  814,  833,  832
 539, 3078, 3079, 3098, 3097,  814,  815,  834,  833
 540, 3079, 1301, 1302, 3098,  815,  133,  134,  834
 541, 1254, 3080, 3099, 1255,  174,  816,  835,  173
 542, 3080, 3081, 3100, 3099,  816,  817,  836,  835
 543, 3081, 3082, 3101, 3100,  817,  818,  837,  836
 544, 3082, 3083, 3102, 3101,  818,  819,  838,  837
 545, 3083, 3084, 3103, 3102,  819,  820,  839,  838
 546, 3084, 3085, 3104, 3103,  820,  821,  840,  839
 547, 3085, 3086, 3105, 3104,  821,  822,  841,  840
 548, 3086, 3087, 3106, 3105,  822,  823,  842,  841
 549, 3087, 3088, 3107, 3106,  823,  824,  843,  842
 550, 3088, 3089, 3108, 3107,  824,  825,  844,  843
 551, 3089, 3090, 3109, 3108,  825,  826,  845,  844
 552, 3090, 3091, 3110, 3109,  826,  827,  846,  845
 553, 3091, 3092, 3111, 3110,  827,  828,  847,  846
 554, 3092, 3093, 3112, 3111,  828,  829,  848,  847
 555, 3093, 3094, 3113, 3112,  829,  830,  849,  848
 556, 3094, 3095, 3114, 3113,  830,  831,  850,  849
 557, 3095, 3096, 3115, 3114,  831,  832,  851,  850
 558, 3096, 3097, 3116, 3115,  832,  833,  852,  851
 559, 3097, 3098, 3117, 3116,  833,  834,  853,  852
 560, 3098, 1302, 1303, 3117,  834,  134,  135,  853
 561, 1255, 3099, 3118, 1256,  173,  835,  854,  172
 562, 3099, 3100, 3119, 3118,  835,  836,  855,  854
 563, 3100, 3101, 3120, 3119,  836,  837,  856,  855
 564, 3101, 3102, 3121, 3120,  837,  838,  857,  856
 565, 3102, 3103, 3122, 3121,  838,  839,  858,  857
 566, 3103, 3104, 3123, 3122,  839,  840,  859,  858
 567, 3104, 3105, 3124, 3123,  840,  841,  860,  859
 568, 3105, 3106, 3125, 3124,  841,  842,  861,  860
 569, 3106, 3107, 3126, 3125,  842,  843,  862,  861
 570, 3107, 3108, 3127, 3126,  843,  844,  863,  862
 571, 3108, 3109, 3128, 3127,  844,  845,  864,  863
 572, 3109, 3110, 3129, 3128,  845,  846,  865,  864
 573, 3110, 3111, 3130, 3129,  846,  847,  866,  865
 574, 3111, 3112, 3131, 3130,  847,  848,  867,  866
 575, 3112, 3113, 3132, 3131,  848,  849,  868,  867
 576, 3113, 3114, 3133, 3132,  849,  850,  869,  868
 577, 3114, 3115, 3134, 3133,  850,  851,  870,  869
 578, 3115, 3116, 3135, 3134,  851,  852,  871,  870
 579, 3116, 3117, 3136, 3135,  852,  853,  872,  871
 580, 3117, 1303, 1304, 3136,  853,  135,  136,  872
 581, 1256, 3118, 3137, 1257,  172,  854,  873,  171
 582, 3118, 3119, 3138, 3137,  854,  855,  874,  873
 583, 3119, 3120, 3139, 3138,  855,  856,  875,  874
 584, 3120, 3121, 3140, 3139,  856,  857,  876,  875
 585, 3121, 3122, 3141, 3140,  857,  858,  877,  876
 586, 3122, 3123, 3142, 3141,  858,  859,  878,  877
 587, 3123, 3124, 3143, 3142,  859,  860,  879,  878
 588, 3124, 3125, 3144, 3143,  860,  861,  880,  879
 589, 3125, 3126, 3145, 3144,  861,  862,  881,  880
 590, 3126, 3127, 3146, 3145,  862,  863,  882,  881
 591, 3127, 3128, 3147, 3146,  863,  864,  883,  882
 592, 3128, 3129, 3148, 3147,  864,  865,  884,  883
 593, 3129, 3130, 3149, 3148,  865,  866,  885,  884
 594, 3130, 3131, 3150, 3149,  866,  867,  886,  885
 595, 3131, 3132, 3151, 3150,  867,  868,  887,  886
 596, 3132, 3133, 3152, 3151,  868,  869,  888,  887
 597, 3133, 3134, 3153, 3152,  869,  870,  889,  888
 598, 3134, 3135, 3154, 3153,  870,  871,  890,  889
 599, 3135, 3136, 3155, 3154,  871,  872,  891,  890
 600, 3136, 1304, 1305, 3155,  872,  136,  137,  891
 601, 1257, 3137, 3156, 1258,  171,  873,  892,  170
 602, 3137, 3138, 3157, 3156,  873,  874,  893,  892
 603, 3138, 3139, 3158, 3157,  874,  875,  894,  893
 604, 3139, 3140, 3159, 3158,  875,  876,  895,  894
 605, 3140, 3141, 3160, 3159,  876,  877,  896,  895
 606, 3141, 3142, 3161, 3160,  877,  878,  897,  896
 607, 3142, 3143, 3162, 3161,  878,  879,  898,  897
 608, 3143, 3144, 3163, 3162,  879,  880,  899,  898
 609, 3144, 3145, 3164, 3163,  880,  881,  900,  899
 610, 3145, 3146, 3165, 3164,  881,  882,  901,  900
 611, 3146, 3147, 3166, 3165,  882,  883,  902,  901
 612, 3147, 3148, 3167, 3166,  883,  884,  903,  902
 613, 3148, 3149, 3168, 3167,  884,  885,  904,  903
 614, 3149, 3150, 3169, 3168,  885,  886,  905,  904
 615, 3150, 3151, 3170, 3169,  886,  887,  906,  905
 616, 3151, 3152, 3171, 3170,  887,  888,  907,  906
 617, 3152, 3153, 3172, 3171,  888,  889,  908,  907
 618, 3153, 3154, 3173, 3172,  889,  890,  909,  908
 619, 3154, 3155, 3174, 3173,  890,  891,  910,  909
 620, 3155, 1305, 1306, 3174,  891,  137,  138,  910
 621, 1258, 3156, 3175, 1259,  170,  892,  911,  169
 622, 3156, 3157, 3176, 3175,  892,  893,  912,  911
 623, 3157, 3158, 3177, 3176,  893,  894,  913,  912
 624, 3158, 3159, 3178, 3177,  894,  895,  914,  913
 625, 3159, 3160, 3179, 3178,  895,  896,  915,  914
 626, 3160, 3161, 3180, 3179,  896,  897,  916,  915
 627, 3161, 3162, 3181, 3180,  897,  898,  917,  916
 628, 3162, 3163, 3182, 3181,  898,  899,  918,  917
 629, 3163, 3164, 3183, 3182,  899,  900,  919,  918
 630, 3164, 3165, 3184, 3183,  900,  901,  920,  919
 631, 3165, 3166, 3185, 3184,  901,  902,  921,  920
 632, 3166, 3167, 3186, 3185,  902,  903,  922,  921
 633, 3167, 3168, 3187, 3186,  903,  904,  923,  922
 634, 3168, 3169, 3188, 3187,  904,  905,  924,  923
 635, 3169, 3170, 3189, 3188,  905,  906,  925,  924
 636, 3170, 3171, 3190, 3189,  906,  907,  926,  925
 637, 3171, 3172, 3191, 3190,  907,  908,  927,  926
 638, 3172, 3173, 3192, 3191,  908,  909,  928,  927
 639, 3173, 3174, 3193, 3192,  909,  910,  929,  928
 640, 3174, 1306, 1307, 3193,  910,  138,  139,  929
 641, 1259, 3175, 3194, 1260,  169,  911,  930,  168
 642, 3175, 3176, 3195, 3194,  911,  912,  931,  930
 643, 3176, 3177, 3196, 3195,  912,  913,  932,  931
 644, 3177, 3178, 3197, 3196,  913,  914,  933,  932
 645, 3178, 3179, 3198, 3197,  914,  915,  934,  933
 646, 3179, 3180, 3199, 3198,  915,  916,  935,  934
 647, 3180, 3181, 3200, 3199,  916,  917,  936,  935
 648, 3181, 3182, 3201, 3200,  917,  918,  937,  936
 649, 3182, 3183, 3202, 3201,  918,  919,  938,  937
 650, 3183, 3184, 3203, 3202,  919,  920,  939,  938
 651, 3184, 3185, 3204, 3203,  920,  921,  940,  939
 652, 3185, 3186, 3205, 3204,  921,  922,  941,  940
 653, 3186, 3187, 3206, 3205,  922,  923,  942,  941
 654, 3187, 3188, 3207, 3206,  923,  924,  943,  942
 655, 3188, 3189, 3208, 3207,  924,  925,  944,  943
 656, 3189, 3190, 3209, 3208,  925,  926,  945,  944
 657, 3190, 3191, 3210, 3209,  926,  927,  946,  945
 658, 3191, 3192, 3211, 3210,  927,  928,  947,  946
 659, 3192, 3193, 3212, 3211,  928,  929,  948,  947
 660, 3193, 1307, 1308, 3212,  929,  139,  140,  948
 661, 1260, 3194, 3213, 1261,  168,  930,  949,  167
 662, 3194, 3195, 3214, 3213,  930,  931,  950,  949
 663, 3195, 3196, 3215, 3214,  931,  932,  951,  950
 664, 3196, 3197, 3216, 3215,  932,  933,  952,  951
 665, 3197, 3198, 3217, 3216,  933,  934,  953,  952
 666, 3198, 3199, 3218, 3217,  934,  935,  954,  953
 667, 3199, 3200, 3219, 3218,  935,  936,  955,  954
 668, 3200, 3201, 3220, 3219,  936,  937,  956,  955
 669, 3201, 3202, 3221, 3220,  937,  938,  957,  956
 670, 3202, 3203, 3222, 3221,  938,  939,  958,  957
 671, 3203, 3204, 3223, 3222,  939,  940,  959,  958
 672, 3204, 3205, 3224, 3223,  940,  941,  960,  959
 673, 3205, 3206, 3225, 3224,  941,  942,  961,  960
 674, 3206, 3207, 3226, 3225,  942,  943,  962,  961
 675, 3207, 3208, 3227, 3226,  943,  944,  963,  962
 676, 3208, 3209, 3228, 3227,  944,  945,  964,  963
 677, 3209, 3210, 3229, 3228,  945,  946,  965,  964
 678, 3210, 3211, 3230, 3229,  946,  947,  966,  965
 679, 3211, 3212, 3231, 3230,  947,  948,  967,  966
 680, 3212, 1308, 1309, 3231,  948,  140,  141,  967
 681, 1261, 3213, 3232, 1262,  167,  949,  968,  166
 682, 3213, 3214, 3233, 3232,  949,  950,  969,  968
 683, 3214, 3215, 3234, 3233,  950,  951,  970,  969
 684, 3215, 3216, 3235, 3234,  951,  952,  971,  970
 685, 3216, 3217, 3236, 3235,  952,  953,  972,  971
 686, 3217, 3218, 3237, 3236,  953,  954,  973,  972
 687, 3218, 3219, 3238, 3237,  954,  955,  974,  973
 688, 3219, 3220, 3239, 3238,  955,  956,  975,  974
 689, 3220, 3221, 3240, 3239,  956,  957,  976,  975
 690, 3221, 3222, 3241, 3240,  957,  958,  977,  976
 691, 3222, 3223, 3242, 3241,  958,  959,  978,  977
 692, 3223, 3224, 3243, 3242,  959,  960,  979,  978
 693, 3224, 3225, 3244, 3243,  960,  961,  980,  979
 694, 3225, 3226, 3245, 3244,  961,  962,  981,  980
 695, 3226, 3227, 3246, 3245,  962,  963,  982,  981
 696, 3227, 3228, 3247, 3246,  963,  964,  983,  982
 697, 3228, 3229, 3248, 3247,  964,  965,  984,  983
 698, 3229, 3230, 3249, 3248,  965,  966,  985,  984
 699, 3230, 3231, 3250, 3249,  966,  967,  986,  985
 700, 3231, 1309, 1310, 3250,  967,  141,  142,  986
 701, 1262, 3232, 3251, 1263,  166,  968,  987,  165
 702, 3232, 3233, 3252, 3251,  968,  969,  988,  987
 703, 3233, 3234, 3253, 3252,  969,  970,  989,  988
 704, 3234, 3235, 3254, 3253,  970,  971,  990,  989
 705, 3235, 3236, 3255, 3254,  971,  972,  991,  990
 706, 3236, 3237, 3256, 3255,  972,  973,  992,  991
 707, 3237, 3238, 3257, 3256,  973,  974,  993,  992
 708, 3238, 3239, 3258, 3257,  974,  975,  994,  993
 709, 3239, 3240, 3259, 3258,  975,  976,  995,  994
 710, 3240, 3241, 3260, 3259,  976,  977,  996,  995
 711, 3241, 3242, 3261, 3260,  977,  978,  997,  996
 712, 3242, 3243, 3262, 3261,  978,  979,  998,  997
 713, 3243, 3244, 3263, 3262,  979,  980,  999,  998
 714, 3244, 3245, 3264, 3263,  980,  981, 1000,  999
 715, 3245, 3246, 3265, 3264,  981,  982, 1001, 1000
 716, 3246, 3247, 3266, 3265,  982,  983, 1002, 1001
 717, 3247, 3248, 3267, 3266,  983,  984, 1003, 1002
 718, 3248, 3249, 3268, 3267,  984,  985, 1004, 1003
 719, 3249, 3250, 3269, 3268,  985,  986, 1005, 1004
 720, 3250, 1310, 1311, 3269,  986,  142,  143, 1005
 721, 1263, 3251, 3270, 1264,  165,  987, 1006,  164
 722, 3251, 3252, 3271, 3270,  987,  988, 1007, 1006
 723, 3252, 3253, 3272, 3271,  988,  989, 1008, 1007
 724, 3253, 3254, 3273, 3272,  989,  990, 1009, 1008
 725, 3254, 3255, 3274, 3273,  990,  991, 1010, 1009
 726, 3255, 3256, 3275, 3274,  991,  992, 1011, 1010
 727, 3256, 3257, 3276, 3275,  992,  993, 1012, 1011
 728, 3257, 3258, 3277, 3276,  993,  994, 1013, 1012
 729, 3258, 3259, 3278, 3277,  994,  995, 1014, 1013
 730, 3259, 3260, 3279, 3278,  995,  996, 1015, 1014
 731, 3260, 3261, 3280, 3279,  996,  997, 1016, 1015
 732, 3261, 3262, 3281, 3280,  997,  998, 1017, 1016
 733, 3262, 3263, 3282, 3281,  998,  999, 1018, 1017
 734, 3263, 3264, 3283, 3282,  999, 1000, 1019, 1018
 735, 3264, 3265, 3284, 3283, 1000, 1001, 1020, 1019
 736, 3265, 3266, 3285, 3284, 1001, 1002, 1021, 1020
 737, 3266, 3267, 3286, 3285, 1002, 1003, 1022, 1021
 738, 3267, 3268, 3287, 3286, 1003, 1004, 1023, 1022
 739, 3268, 3269, 3288, 3287, 1004, 1005, 1024, 1023
 740, 3269, 1311, 1312, 3288, 1005,  143,  144, 1024
 741, 1264, 3270, 1349,  219,  164, 1006,  163,   10
 742, 3270, 3271, 1350, 1349, 1006, 1007,  162,  163
 743, 3271, 3272, 1351, 1350, 1007, 1008,  161,  162
 744, 3272, 3273, 1352, 1351, 1008, 1009,  160,  161
 745, 3273, 3274, 1353, 1352, 1009, 1010,  159,  160
 746, 3274, 3275, 1354, 1353, 1010, 1011,  158,  159
 747, 3275, 3276, 1355, 1354, 1011, 1012,  157,  158
 748, 3276, 3277, 1356, 1355, 1012, 1013,  156,  157
 749, 3277, 3278, 1357, 1356, 1013, 1014,  155,  156
 750, 3278, 3279, 1358, 1357, 1014, 1015,  154,  155
 751, 3279, 3280, 1359, 1358, 1015, 1016,  153,  154
 752, 3280, 3281, 1360, 1359, 1016, 1017,  152,  153
 753, 3281, 3282, 1361, 1360, 1017, 1018,  151,  152
 754, 3282, 3283, 1362, 1361, 1018, 1019,  150,  151
 755, 3283, 3284, 1363, 1362, 1019, 1020,  149,  150
 756, 3284, 3285, 1364, 1363, 1020, 1021,  148,  149
 757, 3285, 3286, 1365, 1364, 1021, 1022,  147,  148
 758, 3286, 3287, 1366, 1365, 1022, 1023,  146,  147
 759, 3287, 3288, 1367, 1366, 1023, 1024,  145,  146
 760, 3288, 1312,  226, 1367, 1024,  144,    9,  145
 761,  118,  740, 3289, 1265,  117,  721, 3061, 1253
 762,  740,  741, 3290, 3289,  721,  722, 3062, 3061
 763,  741,  742, 3291, 3290,  722,  723, 3063, 3062
 764,  742,  743, 3292, 3291,  723,  724, 3064, 3063
 765,  743,  744, 3293, 3292,  724,  725, 3065, 3064
 766,  744,  745, 3294, 3293,  725,  726, 3066, 3065
 767,  745,  746, 3295, 3294,  726,  727, 3067, 3066
 768,  746,  747, 3296, 3295,  727,  728, 3068, 3067
 769,  747,  748, 3297, 3296,  728,  729, 3069, 3068
 770,  748,  749, 3298, 3297,  729,  730, 3070, 3069
 771,  749,  750, 3299, 3298,  730,  731, 3071, 3070
 772,  750,  751, 3300, 3299,  731,  732, 3072, 3071
 773,  751,  752, 3301, 3300,  732,  733, 3073, 3072
 774,  752,  753, 3302, 3301,  733,  734, 3074, 3073
 775,  753,  754, 3303, 3302,  734,  735, 3075, 3074
 776,  754,  755, 3304, 3303,  735,  736, 3076, 3075
 777,  755,  756, 3305, 3304,  736,  737, 3077, 3076
 778,  756,  757, 3306, 3305,  737,  738, 3078, 3077
 779,  757,  758, 3307, 3306,  738,  739, 3079, 3078
 780,  758,  127, 1313, 3307,  739,  128, 1301, 3079
 781, 1265, 3289, 3308, 1266, 1253, 3061, 3080, 1254
 782, 3289, 3290, 3309, 3308, 3061, 3062, 3081, 3080
 783, 3290, 3291, 3310, 3309, 3062, 3063, 3082, 3081
 784, 3291, 3292, 3311, 3310, 3063, 3064, 3083, 3082
 785, 3292, 3293, 3312, 3311, 3064, 3065, 3084, 3083
 786, 3293, 3294, 3313, 3312, 3065, 3066, 3085, 3084
 787, 3294, 3295, 3314, 3313, 3066, 3067, 3086, 3085
 788, 3295, 3296, 3315, 3314, 3067, 3068, 3087, 3086
 789, 3296, 3297, 3316, 3315, 3068, 3069, 3088, 3087
 790, 3297, 3298, 3317, 3316, 3069, 3070, 3089, 3088
 791, 3298, 3299, 3318, 3317, 3070, 3071, 3090, 3089
 792, 3299, 3300, 3319, 3318, 3071, 3072, 3091, 3090
 793, 3300, 3301, 3320, 3319, 3072, 3073, 3092, 3091
 794, 3301, 3302, 3321, 3320, 3073, 3074, 3093, 3092
 795, 3302, 3303, 3322, 3321, 3074, 3075, 3094, 3093
 796, 3303, 3304, 3323, 3322, 3075, 3076, 3095, 3094
 797, 3304, 3305, 3324, 3323, 3076, 3077, 3096, 3095
 798, 3305, 3306, 3325, 3324, 3077, 3078, 3097, 3096
 799, 3306, 3307, 3326, 3325, 3078, 3079, 3098, 3097
 800, 3307, 1313, 1314, 3326, 3079, 1301, 1302, 3098
 801, 1266, 3308, 3327, 1267, 1254, 3080, 3099, 1255
 802, 3308, 3309, 3328, 3327, 3080, 3081, 3100, 3099
 803, 3309, 3310, 3329, 3328, 3081, 3082, 3101, 3100
 804, 3310, 3311, 3330, 3329, 3082, 3083, 3102, 3101
 805, 3311, 3312, 3331, 3330, 3083, 3084, 3103, 3102
 806, 3312, 3313, 3332, 3331, 3084, 3085, 3104, 3103
 807, 3313, 3314, 3333, 3332, 3085, 3086, 3105, 3104
 808, 3314, 3315, 3334, 3333, 3086, 3087, 3106, 3105
 809, 3315, 3316, 3335, 3334, 3087, 3088, 3107, 3106
 810, 3316, 3317, 3336, 3335, 3088, 3089, 3108, 3107
 811, 3317, 3318, 3337, 3336, 3089, 3090, 3109, 3108
 812, 3318, 3319, 3338, 3337, 3090, 3091, 3110, 3109
 813, 3319, 3320, 3339, 3338, 3091, 3092, 3111, 3110
 814, 3320, 3321, 3340, 3339, 3092, 3093, 3112, 3111
 815, 3321, 3322, 3341, 3340, 3093, 3094, 3113, 3112
 816, 3322, 3323, 3342, 3341, 3094, 3095, 3114, 3113
 817, 3323, 3324, 3343, 3342, 3095, 3096, 3115, 3114
 818, 3324, 3325, 3344, 3343, 3096, 3097, 3116, 3115
 819, 3325, 3326, 3345, 3344, 3097, 3098, 3117, 3116
 820, 3326, 1314, 1315, 3345, 3098, 1302, 1303, 3117
 821, 1267, 3327, 3346, 1268, 1255, 3099, 3118, 1256
 822, 3327, 3328, 3347, 3346, 3099, 3100, 3119, 3118
 823, 3328, 3329, 3348, 3347, 3100, 3101, 3120, 3119
 824, 3329, 3330, 3349, 3348, 3101, 3102, 3121, 3120
 825, 3330, 3331, 3350, 3349, 3102, 3103, 3122, 3121
 826, 3331, 3332, 3351, 3350, 3103, 3104, 3123, 3122
 827, 3332, 3333, 3352, 3351, 3104, 3105, 3124, 3123
 828, 3333, 3334, 3353, 3352, 3105, 3106, 3125, 3124
 829, 3334, 3335, 3354, 3353, 3106, 3107, 3126, 3125
 830, 3335, 3336, 3355, 3354, 3107, 3108, 3127, 3126
 831, 3336, 3337, 3356, 3355, 3108, 3109, 3128, 3127
 832, 3337, 3338, 3357, 3356, 3109, 3110, 3129, 3128
 833, 3338, 3339, 3358, 3357, 3110, 3111, 3130, 3129
 834, 3339, 3340, 3359, 3358, 3111, 3112, 3131, 3130
 835, 3340, 3341, 3360, 3359, 3112, 3113, 3132, 3131
 836, 3341, 3342, 3361, 3360, 3113, 3114, 3133, 3132
 837, 3342, 3343, 3362, 3361, 3114, 3115, 3134, 3133
 838, 3343, 3344, 3363, 3362, 3115, 3116, 3135, 3134
 839, 3344, 3345, 3364, 3363, 3116, 3117, 3136, 3135
 840, 3345, 1315, 1316, 3364, 3117, 1303, 1304, 3136
 841, 1268, 3346, 3365, 1269, 1256, 3118, 3137, 1257
 842, 3346, 3347, 3366, 3365, 3118, 3119, 3138, 3137
 843, 3347, 3348, 3367, 3366, 3119, 3120, 3139, 3138
 844, 3348, 3349, 3368, 3367, 3120, 3121, 3140, 3139
 845, 3349, 3350, 3369, 3368, 3121, 3122, 3141, 3140
 846, 3350, 3351, 3370, 3369, 3122, 3123, 3142, 3141
 847, 3351, 3352, 3371, 3370, 3123, 3124, 3143, 3142
 848, 3352, 3353, 3372, 3371, 3124, 3125, 3144, 3143
 849, 3353, 3354, 3373, 3372, 3125, 3126, 3145, 3144
 850, 3354, 3355, 3374, 3373, 3126, 3127, 3146, 3145
 851, 3355, 3356, 3375, 3374, 3127, 3128, 3147, 3146
 852, 3356, 3357, 3376, 3375, 3128, 3129, 3148, 3147
 853, 3357, 3358, 3377, 3376, 3129, 3130, 3149, 3148
 854, 3358, 3359, 3378, 3377, 3130, 3131, 3150, 3149
 855, 3359, 3360, 3379, 3378, 3131, 3132, 3151, 3150
 856, 3360, 3361, 3380, 3379, 3132, 3133, 3152, 3151
 857, 3361, 3362, 3381, 3380, 3133, 3134, 3153, 3152
 858, 3362, 3363, 3382, 3381, 3134, 3135, 3154, 3153
 859, 3363, 3364, 3383, 3382, 3135, 3136, 3155, 3154
 860, 3364, 1316, 1317, 3383, 3136, 1304, 1305, 3155
 861, 1269, 3365, 3384, 1270, 1257, 3137, 3156, 1258
 862, 3365, 3366, 3385, 3384, 3137, 3138, 3157, 3156
 863, 3366, 3367, 3386, 3385, 3138, 3139, 3158, 3157
 864, 3367, 3368, 3387, 3386, 3139, 3140, 3159, 3158
 865, 3368, 3369, 3388, 3387, 3140, 3141, 3160, 3159
 866, 3369, 3370, 3389, 3388, 3141, 3142, 3161, 3160
 867, 3370, 3371, 3390, 3389, 3142, 3143, 3162, 3161
 868, 3371, 3372, 3391, 3390, 3143, 3144, 3163, 3162
 869, 3372, 3373, 3392, 3391, 3144, 3145, 3164, 3163
 870, 3373, 3374, 3393, 3392, 3145, 3146, 3165, 3164
 871, 3374, 3375, 3394, 3393, 3146, 3147, 3166, 3165
 872, 3375, 3376, 3395, 3394, 3147, 3148, 3167, 3166
 873, 3376, 3377, 3396, 3395, 3148, 3149, 3168, 3167
 874, 3377, 3378, 3397, 3396, 3149, 3150, 3169, 3168
 875, 3378, 3379, 3398, 3397, 3150, 3151, 3170, 3169
 876, 3379, 3380, 3399, 3398, 3151, 3152, 3171, 3170
 877, 3380, 3381, 3400, 3399, 3152, 3153, 3172, 3171
 878, 3381, 3382, 3401, 3400, 3153, 3154, 3173, 3172
 879, 3382, 3383, 3402, 3401, 3154, 3155, 3174, 3173
 880, 3383, 1317, 1318, 3402, 3155, 1305, 1306, 3174
 881, 1270, 3384, 3403, 1271, 1258, 3156, 3175, 1259
 882, 3384, 3385, 3404, 3403, 3156, 3157, 3176, 3175
 883, 3385, 3386, 3405, 3404, 3157, 3158, 3177, 3176
 884, 3386, 3387, 3406, 3405, 3158, 3159, 3178, 3177
 885, 3387, 3388, 3407, 3406, 3159, 3160, 3179, 3178
 886, 3388, 3389, 3408, 3407, 3160, 3161, 3180, 3179
 887, 3389, 3390, 3409, 3408, 3161, 3162, 3181, 3180
 888, 3390, 3391, 3410, 3409, 3162, 3163, 3182, 3181
 889, 3391, 3392, 3411, 3410, 3163, 3164, 3183, 3182
 890, 3392, 3393, 3412, 3411, 3164, 3165, 3184, 3183
 891, 3393, 3394, 3413, 3412, 3165, 3166, 3185, 3184
 892, 3394, 3395, 3414, 3413, 3166, 3167, 3186, 3185
 893, 3395, 3396, 3415, 3414, 3167, 3168, 3187, 3186
 894, 3396, 3397, 3416, 3415, 3168, 3169, 3188, 3187
 895, 3397, 3398, 3417, 3416, 3169, 3170, 3189, 3188
 896, 3398, 3399, 3418, 3417, 3170, 3171, 3190, 3189
 897, 3399, 3400, 3419, 3418, 3171, 3172, 3191, 3190
 898, 3400, 3401, 3420, 3419, 3172, 3173, 3192, 3191
 899, 3401, 3402, 3421, 3420, 3173, 3174, 3193, 3192
 900, 3402, 1318, 1319, 3421, 3174, 1306, 1307, 3193
 901, 1271, 3403, 3422, 1272, 1259, 3175, 3194, 1260
 902, 3403, 3404, 3423, 3422, 3175, 3176, 3195, 3194
 903, 3404, 3405, 3424, 3423, 3176, 3177, 3196, 3195
 904, 3405, 3406, 3425, 3424, 3177, 3178, 3197, 3196
 905, 3406, 3407, 3426, 3425, 3178, 3179, 3198, 3197
 906, 3407, 3408, 3427, 3426, 3179, 3180, 3199, 3198
 907, 3408, 3409, 3428, 3427, 3180, 3181, 3200, 3199
 908, 3409, 3410, 3429, 3428, 3181, 3182, 3201, 3200
 909, 3410, 3411, 3430, 3429, 3182, 3183, 3202, 3201
 910, 3411, 3412, 3431, 3430, 3183, 3184, 3203, 3202
 911, 3412, 3413, 3432, 3431, 3184, 3185, 3204, 3203
 912, 3413, 3414, 3433, 3432, 3185, 3186, 3205, 3204
 913, 3414, 3415, 3434, 3433, 3186, 3187, 3206, 3205
 914, 3415, 3416, 3435, 3434, 3187, 3188, 3207, 3206
 915, 3416, 3417, 3436, 3435, 3188, 3189, 3208, 3207
 916, 3417, 3418, 3437, 3436, 3189, 3190, 3209, 3208
 917, 3418, 3419, 3438, 3437, 3190, 3191, 3210, 3209
 918, 3419, 3420, 3439, 3438, 3191, 3192, 3211, 3210
 919, 3420, 3421, 3440, 3439, 3192, 3193, 3212, 3211
 920, 3421, 1319, 1320, 3440, 3193, 1307, 1308, 3212
 921, 1272, 3422, 3441, 1273, 1260, 3194, 3213, 1261
 922, 3422, 3423, 3442, 3441, 3194, 3195, 3214, 3213
 923, 3423, 3424, 3443, 3442, 3195, 3196, 3215, 3214
 924, 3424, 3425, 3444, 3443, 3196, 3197, 3216, 3215
 925, 3425, 3426, 3445, 3444, 3197, 3198, 3217, 3216
 926, 3426, 3427, 3446, 3445, 3198, 3199, 3218, 3217
 927, 3427, 3428, 3447, 3446, 3199, 3200, 3219, 3218
 928, 3428, 3429, 3448, 3447, 3200, 3201, 3220, 3219
 929, 3429, 3430, 3449, 3448, 3201, 3202, 3221, 3220
 930, 3430, 3431, 3450, 3449, 3202, 3203, 3222, 3221
 931, 3431, 3432, 3451, 3450, 3203, 3204, 3223, 3222
 932, 3432, 3433, 3452, 3451, 3204, 3205, 3224, 3223
 933, 3433, 3434, 3453, 3452, 3205, 3206, 3225, 3224
 934, 3434, 3435, 3454, 3453, 3206, 3207, 3226, 3225
 935, 3435, 3436, 3455, 3454, 3207, 3208, 3227, 3226
 936, 3436, 3437, 3456, 3455, 3208, 3209, 3228, 3227
 937, 3437, 3438, 3457, 3456, 3209, 3210, 3229, 3228
 938, 3438, 3439, 3458, 3457, 3210, 3211, 3230, 3229
 939, 3439, 3440, 3459, 3458, 3211, 3212, 3231, 3230
 940, 3440, 1320, 1321, 3459, 3212, 1308, 1309, 3231
 941, 1273, 3441, 3460, 1274, 1261, 3213, 3232, 1262
 942, 3441, 3442, 3461, 3460, 3213, 3214, 3233, 3232
 943, 3442, 3443, 3462, 3461, 3214, 3215, 3234, 3233
 944, 3443, 3444, 3463, 3462, 3215, 3216, 3235, 3234
 945, 3444, 3445, 3464, 3463, 3216, 3217, 3236, 3235
 946, 3445, 3446, 3465, 3464, 3217, 3218, 3237, 3236
 947, 3446, 3447, 3466, 3465, 3218, 3219, 3238, 3237
 948, 3447, 3448, 3467, 3466, 3219, 3220, 3239, 3238
 949, 3448, 3449, 3468, 3467, 3220, 3221, 3240, 3239
 950, 3449, 3450, 3469, 3468, 3221, 3222, 3241, 3240
 951, 3450, 3451, 3470, 3469, 3222, 3223, 3242, 3241
 952, 3451, 3452, 3471, 3470, 3223, 3224, 3243, 3242
 953, 3452, 3453, 3472, 3471, 3224, 3225, 3244, 3243
 954, 3453, 3454, 3473, 3472, 3225, 3226, 3245, 3244
 955, 3454, 3455, 3474, 3473, 3226, 3227, 3246, 3245
 956, 3455, 3456, 3475, 3474, 3227, 3228, 3247, 3246
 957, 3456, 3457, 3476, 3475, 3228, 3229, 3248, 3247
 958, 3457, 3458, 3477, 3476, 3229, 3230, 3249, 3248
 959, 3458, 3459, 3478, 3477, 3230, 3231, 3250, 3249
 960, 3459, 1321, 1322, 3478, 3231, 1309, 1310, 3250
 961, 1274, 3460, 3479, 1275, 1262, 3232, 3251, 1263
 962, 3460, 3461, 3480, 3479, 3232, 3233, 3252, 3251
 963, 3461, 3462, 3481, 3480, 3233, 3234, 3253, 3252
 964, 3462, 3463, 3482, 3481, 3234, 3235, 3254, 3253
 965, 3463, 3464, 3483, 3482, 3235, 3236, 3255, 3254
 966, 3464, 3465, 3484, 3483, 3236, 3237, 3256, 3255
 967, 3465, 3466, 3485, 3484, 3237, 3238, 3257, 3256
 968, 3466, 3467, 3486, 3485, 3238, 3239, 3258, 3257
 969, 3467, 3468, 3487, 3486, 3239, 3240, 3259, 3258
 970, 3468, 3469, 3488, 3487, 3240, 3241, 3260, 3259
 971, 3469, 3470, 3489, 3488, 3241, 3242, 3261, 3260
 972, 3470, 3471, 3490, 3489, 3242, 3243, 3262, 3261
 973, 3471, 3472, 3491, 3490, 3243, 3244, 3263, 3262
 974, 3472, 3473, 3492, 3491, 3244, 3245, 3264, 3263
 975, 3473, 3474, 3493, 3492, 3245, 3246, 3265, 3264
 976, 3474, 3475, 3494, 3493, 3246, 3247, 3266, 3265
 977, 3475, 3476, 3495, 3494, 3247, 3248, 3267, 3266
 978, 3476, 3477, 3496, 3495, 3248, 3249, 3268, 3267
 979, 3477, 3478, 3497, 3496, 3249, 3250, 3269, 3268
 980, 3478, 1322, 1323, 3497, 3250, 1310, 1311, 3269
 981, 1275, 3479, 3498, 1276, 1263, 3251, 3270, 1264
 982, 3479, 3480, 3499, 3498, 3251, 3252, 3271, 3270
 983, 3480, 3481, 3500, 3499, 3252, 3253, 3272, 3271
 984, 3481, 3482, 3501, 3500, 3253, 3254, 3273, 3272
 985, 3482, 3483, 3502, 3501, 3254, 3255, 3274, 3273
 986, 3483, 3484, 3503, 3502, 3255, 3256, 3275, 3274
 987, 3484, 3485, 3504, 3503, 3256, 3257, 3276, 3275
 988, 3485, 3486, 3505, 3504, 3257, 3258, 3277, 3276
 989, 3486, 3487, 3506, 3505, 3258, 3259, 3278, 3277
 990, 3487, 3488, 3507, 3506, 3259, 3260, 3279, 3278
 991, 3488, 3489, 3508, 3507, 3260, 3261, 3280, 3279
 992, 3489, 3490, 3509, 3508, 3261, 3262, 3281, 3280
 993, 3490, 3491, 3510, 3509, 3262, 3263, 3282, 3281
 994, 3491, 3492, 3511, 3510, 3263, 3264, 3283, 3282
 995, 3492, 3493, 3512, 3511, 3264, 3265, 3284, 3283
 996, 3493, 3494, 3513, 3512, 3265, 3266, 3285, 3284
 997, 3494, 3495, 3514, 3513, 3266, 3267, 3286, 3285
 998, 3495, 3496, 3515, 3514, 3267, 3268, 3287, 3286
 999, 3496, 3497, 3516, 3515, 3268, 3269, 3288, 3287
1000, 3497, 1323, 1324, 3516, 3269, 1311, 1312, 3288
1001, 1276, 3498, 1368,  220, 1264, 3270, 1349,  219
1002, 3498, 3499, 1369, 1368, 3270, 3271, 1350, 1349
1003, 3499, 3500, 1370, 1369, 3271, 3272, 1351, 1350
1004, 3500, 3501, 1371, 1370, 3272, 3273, 1352, 1351
1005, 3501, 3502, 1372, 1371, 3273, 3274, 1353, 1352
1006, 3502, 3503, 1373, 1372, 3274, 3275, 1354, 1353
1007, 3503, 3504, 1374, 1373, 3275, 3276, 1355, 1354
1008, 3504, 3505, 1375, 1374, 3276, 3277, 1356, 1355
1009, 3505, 3506, 1376, 1375, 3277, 3278, 1357, 1356
1010, 3506, 3507, 1377, 1376, 3278, 3279, 1358, 1357
1011, 3507, 3508, 1378, 1377, 3279, 3280, 1359, 1358
1012, 3508, 3509, 1379, 1378, 3280, 3281, 1360, 1359
1013, 3509, 3510, 1380, 1379, 3281, 3282, 1361, 1360
1014, 3510, 3511, 1381, 1380, 3282, 3283, 1362, 1361
1015, 3511, 3512, 1382, 1381, 3283, 3284, 1363, 1362
1016, 3512, 3513, 1383, 1382, 3284, 3285, 1364, 1363
1017, 3513, 3514, 1384, 1383, 3285, 3286, 1365, 1364
1018, 3514, 3515, 1385, 1384, 3286, 3287, 1366, 1365
1019, 3515, 3516, 1386, 1385, 3287, 3288, 1367, 1366
1020, 3516, 1324,  225, 1386, 3288, 1312,  226, 1367
1021,  119,  759, 3517, 1277,  118,  740, 3289, 1265
1022,  759,  760, 3518, 3517,  740,  741, 3290, 3289
1023,  760,  761, 3519, 3518,  741,  742, 3291, 3290
1024,  761,  762, 3520, 3519,  742,  743, 3292, 3291
1025,  762,  763, 3521, 3520,  743,  744, 3293, 3292
1026,  763,  764, 3522, 3521,  744,  745, 3294, 3293
1027,  764,  765, 3523, 3522,  745,  746, 3295, 3294
1028,  765,  766, 3524, 3523,  746,  747, 3296, 3295
1029,  766,  767, 3525, 3524,  747,  748, 3297, 3296
1030,  767,  768, 3526, 3525,  748,  749, 3298, 3297
1031,  768,  769, 3527, 3526,  749,  750, 3299, 3298
1032,  769,  770, 3528, 3527,  750,  751, 3300, 3299
1033,  770,  771, 3529, 3528,  751,  752, 3301, 3300
1034,  771,  772, 3530, 3529,  752,  753, 3302, 3301
1035,  772,  773, 3531, 3530,  753,  754, 3303, 3302
1036,  773,  774, 3532, 3531,  754,  755, 3304, 3303
1037,  774,  775, 3533, 3532,  755,  756, 3305, 3304
1038,  775,  776, 3534, 3533,  756,  757, 3306, 3305
1039,  776,  777, 3535, 3534,  757,  758, 3307, 3306
1040,  777,  126, 1325, 3535,  758,  127, 1313, 3307
1041, 1277, 3517, 3536, 1278, 1265, 3289, 3308, 1266
1042, 3517, 3518, 3537, 3536, 3289, 3290, 3309, 3308
1043, 3518, 3519, 3538, 3537, 3290, 3291, 3310, 3309
1044, 3519, 3520, 3539, 3538, 3291, 3292, 3311, 3310
1045, 3520, 3521, 3540, 3539, 3292, 3293, 3312, 3311
1046, 3521, 3522, 3541, 3540, 3293, 3294, 3313, 3312
1047, 3522, 3523, 3542, 3541, 3294, 3295, 3314, 3313
1048, 3523, 3524, 3543, 3542, 3295, 3296, 3315, 3314
1049, 3524, 3525, 3544, 3543, 3296, 3297, 3316, 3315
1050, 3525, 3526, 3545, 3544, 3297, 3298, 3317, 3316
1051, 3526, 3527, 3546, 3545, 3298, 3299, 3318, 3317
1052, 3527, 3528, 3547, 3546, 3299, 3300, 3319, 3318
1053, 3528, 3529, 3548, 3547, 3300, 3301, 3320, 3319
1054, 3529, 3530, 3549, 3548, 3301, 3302, 3321, 3320
1055, 3530, 3531, 3550, 3549, 3302, 3303, 3322, 3321
1056, 3531, 3532, 3551, 3550, 3303, 3304, 3323, 3322
1057, 3532, 3533, 3552, 3551, 3304, 3305, 3324, 3323
1058, 3533, 3534, 3553, 3552, 3305, 3306, 3325, 3324
1059, 3534, 3535, 3554, 3553, 3306, 3307, 3326, 3325
1060, 3535, 1325, 1326, 3554, 3307, 1313, 1314, 3326
1061, 1278, 3536, 3555, 1279, 1266, 3308, 3327, 1267
1062, 3536, 3537, 3556, 3555, 3308, 3309, 3328, 3327
1063, 3537, 3538, 3557, 3556, 3309, 3310, 3329, 3328
1064, 3538, 3539, 3558, 3557, 3310, 3311, 3330, 3329
1065, 3539, 3540, 3559, 3558, 3311, 3312, 3331, 3330
1066, 3540, 3541, 3560, 3559, 3312, 3313, 3332, 3331
1067, 3541, 3542, 3561, 3560, 3313, 3314, 3333, 3332
1068, 3542, 3543, 3562, 3561, 3314, 3315, 3334, 3333
1069, 3543, 3544, 3563, 3562, 3315, 3316, 3335, 3334
1070, 3544, 3545, 3564, 3563, 3316, 3317, 3336, 3335
1071, 3545, 3546, 3565, 3564, 3317, 3318, 3337, 3336
1072, 3546, 3547, 3566, 3565, 3318, 3319, 3338, 3337
1073, 3547, 3548, 3567, 3566, 3319, 3320, 3339, 3338
1074, 3548, 3549, 3568, 3567, 3320, 3321, 3340, 3339
1075, 3549, 3550, 3569, 3568, 3321, 3322, 3341, 3340
1076, 3550, 3551, 3570, 3569, 3322, 3323, 3342, 3341
1077, 3551, 3552, 3571, 3570, 3323, 3324, 3343, 3342
1078, 3552, 3553, 3572, 3571, 3324, 3325, 3344, 3343
1079, 3553, 3554, 3573, 3572, 3325, 3326, 3345, 3344
1080, 3554, 1326, 1327, 3573, 3326, 1314, 1315, 3345
1081, 1279, 3555, 3574, 1280, 1267, 3327, 3346, 1268
1082, 3555, 3556, 3575, 3574, 3327, 3328, 3347, 3346
1083, 3556, 3557, 3576, 3575, 3328, 3329, 3348, 3347
1084, 3557, 3558, 3577, 3576, 3329, 3330, 3349, 3348
1085, 3558, 3559, 3578, 3577, 3330, 3331, 3350, 3349
1086, 3559, 3560, 3579, 3578, 3331, 3332, 3351, 3350
1087, 3560, 3561, 3580, 3579, 3332, 3333, 3352, 3351
1088, 3561, 3562, 3581, 3580, 3333, 3334, 3353, 3352
1089, 3562, 3563, 3582, 3581, 3334, 3335, 3354, 3353
1090, 3563, 3564, 3583, 3582, 3335, 3336, 3355, 3354
1091, 3564, 3565, 3584, 3583, 3336, 3337, 3356, 3355
1092, 3565, 3566, 3585, 3584, 3337, 3338, 3357, 3356
1093, 3566, 3567, 3586, 3585, 3338, 3339, 3358, 3357
1094, 3567, 3568, 3587, 3586, 3339, 3340, 3359, 3358
1095, 3568, 3569, 3588, 3587, 3340, 3341, 3360, 3359
1096, 3569, 3570, 3589, 3588, 3341, 3342, 3361, 3360
1097, 3570, 3571, 3590, 3589, 3342, 3343, 3362, 3361
1098, 3571, 3572, 3591, 3590, 3343, 3344, 3363, 3362
1099, 3572, 3573, 3592, 3591, 3344, 3345, 3364, 3363
1100, 3573, 1327, 1328, 3592, 3345, 1315, 1316, 3364
1101, 1280, 3574, 3593, 1281, 1268, 3346, 3365, 1269
1102, 3574, 3575, 3594, 3593, 3346, 3347, 3366, 3365
1103, 3575, 3576, 3595, 3594, 3347, 3348, 3367, 3366
1104, 3576, 3577, 3596, 3595, 3348, 3349, 3368, 3367
1105, 3577, 3578, 3597, 3596, 3349, 3350, 3369, 3368
1106, 3578, 3579, 3598, 3597, 3350, 3351, 3370, 3369
1107, 3579, 3580, 3599, 3598, 3351, 3352, 3371, 3370
1108, 3580, 3581, 3600, 3599, 3352, 3353, 3372, 3371
1109, 3581, 3582, 3601, 3600, 3353, 3354, 3373, 3372
1110, 3582, 3583, 3602, 3601, 3354, 3355, 3374, 3373
1111, 3583, 3584, 3603, 3602, 3355, 3356, 3375, 3374
1112, 3584, 3585, 3604, 3603, 3356, 3357, 3376, 3375
1113, 3585, 3586, 3605, 3604, 3357, 3358, 3377, 3376
1114, 3586, 3587, 3606, 3605, 3358, 3359, 3378, 3377
1115, 3587, 3588, 3607, 3606, 3359, 3360, 3379, 3378
1116, 3588, 3589, 3608, 3607, 3360, 3361, 3380, 3379
1117, 3589, 3590, 3609, 3608, 3361, 3362, 3381, 3380
1118, 3590, 3591, 3610, 3609, 3362, 3363, 3382, 3381
1119, 3591, 3592, 3611, 3610, 3363, 3364, 3383, 3382
1120, 3592, 1328, 1329, 3611, 3364, 1316, 1317, 3383
1121, 1281, 3593, 3612, 1282, 1269, 3365, 3384, 1270
1122, 3593, 3594, 3613, 3612, 3365, 3366, 3385, 3384
1123, 3594, 3595, 3614, 3613, 3366, 3367, 3386, 3385
1124, 3595, 3596, 3615, 3614, 3367, 3368, 3387, 3386
1125, 3596, 3597, 3616, 3615, 3368, 3369, 3388, 3387
1126, 3597, 3598, 3617, 3616, 3369, 3370, 3389, 3388
1127, 3598, 3599, 3618, 3617, 3370, 3371, 3390, 3389
1128, 3599, 3600, 3619, 3618, 3371, 3372, 3391, 3390
1129, 3600, 3601, 3620, 3619, 3372, 3373, 3392, 3391
1130, 3601, 3602, 3621, 3620, 3373, 3374, 3393, 3392
1131, 3602, 3603, 3622, 3621, 3374, 3375, 3394, 3393
1132, 3603, 3604, 3623, 3622, 3375, 3376, 3395, 3394
1133, 3604, 3605, 3624, 3623, 3376, 3377, 3396, 3395
1134, 3605, 3606, 3625, 3624, 3377, 3378, 3397, 3396
1135, 3606, 3607, 3626, 3625, 3378, 3379, 3398, 3397
1136, 3607, 3608, 3627, 3626, 3379, 3380, 3399, 3398
1137, 3608, 3609, 3628, 3627, 3380, 3381, 3400, 3399
1138, 3609, 3610, 3629, 3628, 3381, 3382, 3401, 3400
1139, 3610, 3611, 3630, 3629, 3382, 3383, 3402, 3401
1140, 3611, 1329, 1330, 3630, 3383, 1317, 1318, 3402
1141, 1282, 3612, 3631, 1283, 1270, 3384, 3403, 1271
1142, 3612, 3613, 3632, 3631, 3384, 3385, 3404, 3403
1143, 3613, 3614, 3633, 3632, 3385, 3386, 3405, 3404
1144, 3614, 3615, 3634, 3633, 3386, 3387, 3406, 3405
1145, 3615, 3616, 3635, 3634, 3387, 3388, 3407, 3406
1146, 3616, 3617, 3636, 3635, 3388, 3389, 3408, 3407
1147, 3617, 3618, 3637, 3636, 3389, 3390, 3409, 3408
1148, 3618, 3619, 3638, 3637, 3390, 3391, 3410, 3409
1149, 3619, 3620, 3639, 3638, 3391, 3392, 3411, 3410
1150, 3620, 3621, 3640, 3639, 3392, 3393, 3412, 3411
1151, 3621, 3622, 3641, 3640, 3393, 3394, 3413, 3412
1152, 3622, 3623, 3642, 3641, 3394, 3395, 3414, 3413
1153, 3623, 3624, 3643, 3642, 3395, 3396, 3415, 3414
1154, 3624, 3625, 3644, 3643, 3396, 3397, 3416, 3415
1155, 3625, 3626, 3645, 3644, 3397, 3398, 3417, 3416
1156, 3626, 3627, 3646, 3645, 3398, 3399, 3418, 3417
1157, 3627, 3628, 3647, 3646, 3399, 3400, 3419, 3418
1158, 3628, 3629, 3648, 3647, 3400, 3401, 3420, 3419
1159, 3629, 3630, 3649, 3648, 3401, 3402, 3421, 3420
1160, 3630, 1330, 1331, 3649, 3402, 1318, 1319, 3421
1161, 1283, 3631, 3650, 1284, 1271, 3403, 3422, 1272
1162, 3631, 3632, 3651, 3650, 3403, 3404, 3423, 3422
1163, 3632, 3633, 3652, 3651, 3404, 3405, 3424, 3423
1164, 3633, 3634, 3653, 3652, 3405, 3406, 3425, 3424
1165, 3634, 3635, 3654, 3653, 3406, 3407, 3426, 3425
1166, 3635, 3636, 3655, 3654, 3407, 3408, 3427, 3426
1167, 3636, 3637, 3656, 3655, 3408, 3409, 3428, 3427
1168, 3637, 3638, 3657, 3656, 3409, 3410, 3429, 3428
1169, 3638, 3639, 3658, 3657, 3410, 3411, 3430, 3429
1170, 3639, 3640, 3659, 3658, 3411, 3412, 3431, 3430
1171, 3640, 3641, 3660, 3659, 3412, 3413, 3432, 3431
1172, 3641, 3642, 3661, 3660, 3413, 3414, 3433, 3432
1173, 3642, 3643, 3662, 3661, 3414, 3415, 3434, 3433
1174, 3643, 3644, 3663, 3662, 3415, 3416, 3435, 3434
1175, 3644, 3645, 3664, 3663, 3416, 3417, 3436, 3435
1176, 3645, 3646, 3665, 3664, 3417, 3418, 3437, 3436
1177, 3646, 3647, 3666, 3665, 3418, 3419, 3438, 3437
1178, 3647, 3648, 3667, 3666, 3419, 3420, 3439, 3438
1179, 3648, 3649, 3668, 3667, 3420, 3421, 3440, 3439
1180, 3649, 1331, 1332, 3668, 3421, 1319, 1320, 3440
1181, 1284, 3650, 3669, 1285, 1272, 3422, 3441, 1273
1182, 3650, 3651, 3670, 3669, 3422, 3423, 3442, 3441
1183, 3651, 3652, 3671, 3670, 3423, 3424, 3443, 3442
1184, 3652, 3653, 3672, 3671, 3424, 3425, 3444, 3443
1185, 3653, 3654, 3673, 3672, 3425, 3426, 3445, 3444
1186, 3654, 3655, 3674, 3673, 3426, 3427, 3446, 3445
1187, 3655, 3656, 3675, 3674, 3427, 3428, 3447, 3446
1188, 3656, 3657, 3676, 3675, 3428, 3429, 3448, 3447
1189, 3657, 3658, 3677, 3676, 3429, 3430, 3449, 3448
1190, 3658, 3659, 3678, 3677, 3430, 3431, 3450, 3449
1191, 3659, 3660, 3679, 3678, 3431, 3432, 3451, 3450
1192, 3660, 3661, 3680, 3679, 3432, 3433, 3452, 3451
1193, 3661, 3662, 3681, 3680, 3433, 3434, 3453, 3452
1194, 3662, 3663, 3682, 3681, 3434, 3435, 3454, 3453
1195, 3663, 3664, 3683, 3682, 3435, 3436, 3455, 3454
1196, 3664, 3665, 3684, 3683, 3436, 3437, 3456, 3455
1197, 3665, 3666, 3685, 3684, 3437, 3438, 3457, 3456
1198, 3666, 3667, 3686, 3685, 3438, 3439, 3458, 3457
1199, 3667, 3668, 3687, 3686, 3439, 3440, 3459, 3458
1200, 3668, 1332, 1333, 3687, 3440, 1320, 1321, 3459
1201, 1285, 3669, 3688, 1286, 1273, 3441, 3460, 1274
1202, 3669, 3670, 3689, 3688, 3441, 3442, 3461, 3460
1203, 3670, 3671, 3690, 3689, 3442, 3443, 3462, 3461
1204, 3671, 3672, 3691, 3690, 3443, 3444, 3463, 3462
1205, 3672, 3673, 3692, 3691, 3444, 3445, 3464, 3463
1206, 3673, 3674, 3693, 3692, 3445, 3446, 3465, 3464
1207, 3674, 3675, 3694, 3693, 3446, 3447, 3466, 3465
1208, 3675, 3676, 3695, 3694, 3447, 3448, 3467, 3466
1209, 3676, 3677, 3696, 3695, 3448, 3449, 3468, 3467
1210, 3677, 3678, 3697, 3696, 3449, 3450, 3469, 3468
1211, 3678, 3679, 3698, 3697, 3450, 3451, 3470, 3469
1212, 3679, 3680, 3699, 3698, 3451, 3452, 3471, 3470
1213, 3680, 3681, 3700, 3699, 3452, 3453, 3472, 3471
1214, 3681, 3682, 3701, 3700, 3453, 3454, 3473, 3472
1215, 3682, 3683, 3702, 3701, 3454, 3455, 3474, 3473
1216, 3683, 3684, 3703, 3702, 3455, 3456, 3475, 3474
1217, 3684, 3685, 3704, 3703, 3456, 3457, 3476, 3475
1218, 3685, 3686, 3705, 3704, 3457, 3458, 3477, 3476
1219, 3686, 3687, 3706, 3705, 3458, 3459, 3478, 3477
1220, 3687, 1333, 1334, 3706, 3459, 1321, 1322, 3478
1221, 1286, 3688, 3707, 1287, 1274, 3460, 3479, 1275
1222, 3688, 3689, 3708, 3707, 3460, 3461, 3480, 3479
1223, 3689, 3690, 3709, 3708, 3461, 3462, 3481, 3480
1224, 3690, 3691, 3710, 3709, 3462, 3463, 3482, 3481
1225, 3691, 3692, 3711, 3710, 3463, 3464, 3483, 3482
1226, 3692, 3693, 3712, 3711, 3464, 3465, 3484, 3483
1227, 3693, 3694, 3713, 3712, 3465, 3466, 3485, 3484
1228, 3694, 3695, 3714, 3713, 3466, 3467, 3486, 3485
1229, 3695, 3696, 3715, 3714, 3467, 3468, 3487, 3486
1230, 3696, 3697, 3716, 3715, 3468, 3469, 3488, 3487
1231, 3697, 3698, 3717, 3716, 3469, 3470, 3489, 3488
1232, 3698, 3699, 3718, 3717, 3470, 3471, 3490, 3489
1233, 3699, 3700, 3719, 3718, 3471, 3472, 3491, 3490
1234, 3700, 3701, 3720, 3719, 3472, 3473, 3492, 3491
1235, 3701, 3702, 3721, 3720, 3473, 3474, 3493, 3492
1236, 3702, 3703, 3722, 3721, 3474, 3475, 3494, 3493
1237, 3703, 3704, 3723, 3722, 3475, 3476, 3495, 3494
1238, 3704, 3705, 3724, 3723, 3476, 3477, 3496, 3495
1239, 3705, 3706, 3725, 3724, 3477, 3478, 3497, 3496
1240, 3706, 1334, 1335, 3725, 3478, 1322, 1323, 3497
1241, 1287, 3707, 3726, 1288, 1275, 3479, 3498, 1276
1242, 3707, 3708, 3727, 3726, 3479, 3480, 3499, 3498
1243, 3708, 3709, 3728, 3727, 3480, 3481, 3500, 3499
1244, 3709, 3710, 3729, 3728, 3481, 3482, 3501, 3500
1245, 3710, 3711, 3730, 3729, 3482, 3483, 3502, 3501
1246, 3711, 3712, 3731, 3730, 3483, 3484, 3503, 3502
1247, 3712, 3713, 3732, 3731, 3484, 3485, 3504, 3503
1248, 3713, 3714, 3733, 3732, 3485, 3486, 3505, 3504
1249, 3714, 3715, 3734, 3733, 3486, 3487, 3506, 3505
1250, 3715, 3716, 3735, 3734, 3487, 3488, 3507, 3506
1251, 3716, 3717, 3736, 3735, 3488, 3489, 3508, 3507
1252, 3717, 3718, 3737, 3736, 3489, 3490, 3509, 3508
1253, 3718, 3719, 3738, 3737, 3490, 3491, 3510, 3509
1254, 3719, 3720, 3739, 3738, 3491, 3492, 3511, 3510
1255, 3720, 3721, 3740, 3739, 3492, 3493, 3512, 3511
1256, 3721, 3722, 3741, 3740, 3493, 3494, 3513, 3512
1257, 3722, 3723, 3742, 3741, 3494, 3495, 3514, 3513
1258, 3723, 3724, 3743, 3742, 3495, 3496, 3515, 3514
1259, 3724, 3725, 3744, 3743, 3496, 3497, 3516, 3515
1260, 3725, 1335, 1336, 3744, 3497, 1323, 1324, 3516
1261, 1288, 3726, 1387,  221, 1276, 3498, 1368,  220
1262, 3726, 3727, 1388, 1387, 3498, 3499, 1369, 1368
1263, 3727, 3728, 1389, 1388, 3499, 3500, 1370, 1369
1264, 3728, 3729, 1390, 1389, 3500, 3501, 1371, 1370
1265, 3729, 3730, 1391, 1390, 3501, 3502, 1372, 1371
1266, 3730, 3731, 1392, 1391, 3502, 3503, 1373, 1372
1267, 3731, 3732, 1393, 1392, 3503, 3504, 1374, 1373
1268, 3732, 3733, 1394, 1393, 3504, 3505, 1375, 1374
1269, 3733, 3734, 1395, 1394, 3505, 3506, 1376, 1375
1270, 3734, 3735, 1396, 1395, 3506, 3507, 1377, 1376
1271, 3735, 3736, 1397, 1396, 3507, 3508, 1378, 1377
1272, 3736, 3737, 1398, 1397, 3508, 3509, 1379, 1378
1273, 3737, 3738, 1399, 1398, 3509, 3510, 1380, 1379
1274, 3738, 3739, 1400, 1399, 3510, 3511, 1381, 1380
1275, 3739, 3740, 1401, 1400, 3511, 3512, 1382, 1381
1276, 3740, 3741, 1402, 1401, 3512, 3513, 1383, 1382
1277, 3741, 3742, 1403, 1402, 3513, 3514, 1384, 1383
1278, 3742, 3743, 1404, 1403, 3514, 3515, 1385, 1384
1279, 3743, 3744, 1405, 1404, 3515, 3516, 1386, 1385
1280, 3744, 1336,  224, 1405, 3516, 1324,  225, 1386
1281,  120,  778, 3745, 1289,  119,  759, 3517, 1277
1282,  778,  779, 3746, 3745,  759,  760, 3518, 3517
1283,  779,  780, 3747, 3746,  760,  761, 3519, 3518
1284,  780,  781, 3748, 3747,  761,  762, 3520, 3519
1285,  781,  782, 3749, 3748,  762,  763, 3521, 3520
1286,  782,  783, 3750, 3749,  763,  764, 3522, 3521
1287,  783,  784, 3751, 3750,  764,  765, 3523, 3522
1288,  784,  785, 3752, 3751,  765,  766, 3524, 3523
1289,  785,  786, 3753, 3752,  766,  767, 3525, 3524
1290,  786,  787, 3754, 3753,  767,  768, 3526, 3525
1291,  787,  788, 3755, 3754,  768,  769, 3527, 3526
1292,  788,  789, 3756, 3755,  769,  770, 3528, 3527
1293,  789,  790, 3757, 3756,  770,  771, 3529, 3528
1294,  790,  791, 3758, 3757,  771,  772, 3530, 3529
1295,  791,  792, 3759, 3758,  772,  773, 3531, 3530
1296,  792,  793, 3760, 3759,  773,  774, 3532, 3531
1297,  793,  794, 3761, 3760,  774,  775, 3533, 3532
1298,  794,  795, 3762, 3761,  775,  776, 3534, 3533
1299,  795,  796, 3763, 3762,  776,  777, 3535, 3534
1300,  796,  125, 1337, 3763,  777,  126, 1325, 3535
1301, 1289, 3745, 3764, 1290, 1277, 3517, 3536, 1278
1302, 3745, 3746, 3765, 3764, 3517, 3518, 3537, 3536
1303, 3746, 3747, 3766, 3765, 3518, 3519, 3538, 3537
1304, 3747, 3748, 3767, 3766, 3519, 3520, 3539, 3538
1305, 3748, 3749, 3768, 3767, 3520, 3521, 3540, 3539
1306, 3749, 3750, 3769, 3768, 3521, 3522, 3541, 3540
1307, 3750, 3751, 3770, 3769, 3522, 3523, 3542, 3541
1308, 3751, 3752, 3771, 3770, 3523, 3524, 3543, 3542
1309, 3752, 3753, 3772, 3771, 3524, 3525, 3544, 3543
1310, 3753, 3754, 3773, 3772, 3525, 3526, 3545, 3544
1311, 3754, 3755, 3774, 3773, 3526, 3527, 3546, 3545
1312, 3755, 3756, 3775, 3774, 3527, 3528, 3547, 3546
1313, 3756, 3757, 3776, 3775, 3528, 3529, 3548, 3547
1314, 3757, 3758, 3777, 3776, 3529, 3530, 3549, 3548
1315, 3758, 3759, 3778, 3777, 3530, 3531, 3550, 3549
1316, 3759, 3760, 3779, 3778, 3531, 3532, 3551, 3550
1317, 3760, 3761, 3780, 3779, 3532, 3533, 3552, 3551
1318, 3761, 3762, 3781, 3780, 3533, 3534, 3553, 3552
1319, 3762, 3763, 3782, 3781, 3534, 3535, 3554, 3553
1320, 3763, 1337, 1338, 3782, 3535, 1325, 1326, 3554
1321, 1290, 3764, 3783, 1291, 1278, 3536, 3555, 1279
1322, 3764, 3765, 3784, 3783, 3536, 3537, 3556, 3555
1323, 3765, 3766, 3785, 3784, 3537, 3538, 3557, 3556
1324, 3766, 3767, 3786, 3785, 3538, 3539, 3558, 3557
1325, 3767, 3768, 3787, 3786, 3539, 3540, 3559, 3558
1326, 3768, 3769, 3788, 3787, 3540, 3541, 3560, 3559
1327, 3769, 3770, 3789, 3788, 3541, 3542, 3561, 3560
1328, 3770, 3771, 3790, 3789, 3542, 3543, 3562, 3561
1329, 3771, 3772, 3791, 3790, 3543, 3544, 3563, 3562
1330, 3772, 3773, 3792, 3791, 3544, 3545, 3564, 3563
1331, 3773, 3774, 3793, 3792, 3545, 3546, 3565, 3564
1332, 3774, 3775, 3794, 3793, 3546, 3547, 3566, 3565
1333, 3775, 3776, 3795, 3794, 3547, 3548, 3567, 3566
1334, 3776, 3777, 3796, 3795, 3548, 3549, 3568, 3567
1335, 3777, 3778, 3797, 3796, 3549, 3550, 3569, 3568
1336, 3778, 3779, 3798, 3797, 3550, 3551, 3570, 3569
1337, 3779, 3780, 3799, 3798, 3551, 3552, 3571, 3570
1338, 3780, 3781, 3800, 3799, 3552, 3553, 3572, 3571
1339, 3781, 3782, 3801, 3800, 3553, 3554, 3573, 3572
1340, 3782, 1338, 1339, 3801, 3554, 1326, 1327, 3573
1341, 1291, 3783, 3802, 1292, 1279, 3555, 3574, 1280
1342, 3783, 3784, 3803, 3802, 3555, 3556, 3575, 3574
1343, 3784, 3785, 3804, 3803, 3556, 3557, 3576, 3575
1344, 3785, 3786, 3805, 3804, 3557, 3558, 3577, 3576
1345, 3786, 3787, 3806, 3805, 3558, 3559, 3578, 3577
1346, 3787, 3788, 3807, 3806, 3559, 3560, 3579, 3578
1347, 3788, 3789, 3808, 3807, 3560, 3561, 3580, 3579
1348, 3789, 3790, 3809, 3808, 3561, 3562, 3581, 3580
1349, 3790, 3791, 3810, 3809, 3562, 3563, 3582, 3581
1350, 3791, 3792, 3811, 3810, 3563, 3564, 3583, 3582
1351, 3792, 3793, 3812, 3811, 3564, 3565, 3584, 3583
1352, 3793, 3794, 3813, 3812, 3565, 3566, 3585, 3584
1353, 3794, 3795, 3814, 3813, 3566, 3567, 3586, 3585
1354, 3795, 3796, 3815, 3814, 3567, 3568, 3587, 3586
1355, 3796, 3797, 3816, 3815, 3568, 3569, 3588, 3587
1356, 3797, 3798, 3817, 3816, 3569, 3570, 3589, 3588
1357, 3798, 3799, 3818, 3817, 3570, 3571, 3590, 3589
1358, 3799, 3800, 3819, 3818, 3571, 3572, 3591, 3590
1359, 3800, 3801, 3820, 3819, 3572, 3573, 3592, 3591
1360, 3801, 1339, 1340, 3820, 3573, 1327, 1328, 3592
1361, 1292, 3802, 3821, 1293, 1280, 3574, 3593, 1281
1362, 3802, 3803, 3822, 3821, 3574, 3575, 3594, 3593
1363, 3803, 3804, 3823, 3822, 3575, 3576, 3595, 3594
1364, 3804, 3805, 3824, 3823, 3576, 3577, 3596, 3595
1365, 3805, 3806, 3825, 3824, 3577, 3578, 3597, 3596
1366, 3806, 3807, 3826, 3825, 3578, 3579, 3598, 3597
1367, 3807, 3808, 3827, 3826, 3579, 3580, 3599, 3598
1368, 3808, 3809, 3828, 3827, 3580, 3581, 3600, 3599
1369, 3809, 3810, 3829, 3828, 3581, 3582, 3601, 3600
1370, 3810, 3811, 3830, 3829, 3582, 3583, 3602, 3601
1371, 3811, 3812, 3831, 3830, 3583, 3584, 3603, 3602
1372, 3812, 3813, 3832, 3831, 3584, 3585, 3604, 3603
1373, 3813, 3814, 3833, 3832, 3585, 3586, 3605, 3604
1374, 3814, 3815, 3834, 3833, 3586, 3587, 3606, 3605
1375, 3815, 3816, 3835, 3834, 3587, 3588, 3607, 3606
1376, 3816, 3817, 3836, 3835, 3588, 3589, 3608, 3607
1377, 3817, 3818, 3837, 3836, 3589, 3590, 3609, 3608
1378, 3818, 3819, 3838, 3837, 3590, 3591, 3610, 3609
1379, 3819, 3820, 3839, 3838, 3591, 3592, 3611, 3610
1380, 3820, 1340, 1341, 3839, 3592, 1328, 1329, 3611
1381, 1293, 3821, 3840, 1294, 1281, 3593, 3612, 1282
1382, 3821, 3822, 3841, 3840, 3593, 3594, 3613, 3612
1383, 3822, 3823, 3842, 3841, 3594, 3595, 3614, 3613
1384, 3823, 3824, 3843, 3842, 3595, 3596, 3615, 3614
1385, 3824, 3825, 3844, 3843, 3596, 3597, 3616, 3615
1386, 3825, 3826, 3845, 3844, 3597, 3598, 3617, 3616
1387, 3826, 3827, 3846, 3845, 3598, 3599, 3618, 3617
1388, 3827, 3828, 3847, 3846, 3599, 3600, 3619, 3618
1389, 3828, 3829, 3848, 3847, 3600, 3601, 3620, 3619
1390, 3829, 3830, 3849, 3848, 3601, 3602, 3621, 3620
1391, 3830, 3831, 3850, 3849, 3602, 3603, 3622, 3621
1392, 3831, 3832, 3851, 3850, 3603, 3604, 3623, 3622
1393, 3832, 3833, 3852, 3851, 3604, 3605, 3624, 3623
1394, 3833, 3834, 3853, 3852, 3605, 3606, 3625, 3624
1395, 3834, 3835, 3854, 3853, 3606, 3607, 3626, 3625
1396, 3835, 3836, 3855, 3854, 3607, 3608, 3627, 3626
1397, 3836, 3837, 3856, 3855, 3608, 3609, 3628, 3627
1398, 3837, 3838, 3857, 3856, 3609, 3610, 3629, 3628
1399, 3838, 3839, 3858, 3857, 3610, 3611, 3630, 3629
1400, 3839, 1341, 1342, 3858, 3611, 1329, 1330, 3630
1401, 1294, 3840, 3859, 1295, 1282, 3612, 3631, 1283
1402, 3840, 3841, 3860, 3859, 3612, 3613, 3632, 3631
1403, 3841, 3842, 3861, 3860, 3613, 3614, 3633, 3632
1404, 3842, 3843, 3862, 3861, 3614, 3615, 3634, 3633
1405, 3843, 3844, 3863, 3862, 3615, 3616, 3635, 3634
1406, 3844, 3845, 3864, 3863, 3616, 3617, 3636, 3635
1407, 3845, 3846, 3865, 3864, 3617, 3618, 3637, 3636
1408, 3846, 3847, 3866, 3865, 3618, 3619, 3638, 3637
1409, 3847, 3848, 3867, 3866, 3619, 3620, 3639, 3638
1410, 3848, 3849, 3868, 3867, 3620, 3621, 3640, 3639
1411, 3849, 3850, 3869, 3868, 3621, 3622, 3641, 3640
1412, 3850, 3851, 3870, 3869, 3622, 3623, 3642, 3641
1413, 3851, 3852, 3871, 3870, 3623, 3624, 3643, 3642
1414, 3852, 3853, 3872, 3871, 3624, 3625, 3644, 3643
1415, 3853, 3854, 3873, 3872, 3625, 3626, 3645, 3644
1416, 3854, 3855, 3874, 3873, 3626, 3627, 3646, 3645
1417, 3855, 3856, 3875, 3874, 3627, 3628, 3647, 3646
1418, 3856, 3857, 3876, 3875, 3628, 3629, 3648, 3647
1419, 3857, 3858, 3877, 3876, 3629, 3630, 3649, 3648
1420, 3858, 1342, 1343, 3877, 3630, 1330, 1331, 3649
1421, 1295, 3859, 3878, 1296, 1283, 3631, 3650, 1284
1422, 3859, 3860, 3879, 3878, 3631, 3632, 3651, 3650
1423, 3860, 3861, 3880, 3879, 3632, 3633, 3652, 3651
1424, 3861, 3862, 3881, 3880, 3633, 3634, 3653, 3652
1425, 3862, 3863, 3882, 3881, 3634, 3635, 3654, 3653
1426, 3863, 3864, 3883, 3882, 3635, 3636, 3655, 3654
1427, 3864, 3865, 3884, 3883, 3636, 3637, 3656, 3655
1428, 3865, 3866, 3885, 3884, 3637, 3638, 3657, 3656
1429, 3866, 3867, 3886, 3885, 3638, 3639, 3658, 3657
1430, 3867, 3868, 3887, 3886, 3639, 3640, 3659, 3658
1431, 3868, 3869, 3888, 3887, 3640, 3641, 3660, 3659
1432, 3869, 3870, 3889, 3888, 3641, 3642, 3661, 3660
1433, 3870, 3871, 3890, 3889, 3642, 3643, 3662, 3661
1434, 3871, 3872, 3891, 3890, 3643, 3644, 3663, 3662
1435, 3872, 3873, 3892, 3891, 3644, 3645, 3664, 3663
1436, 3873, 3874, 3893, 3892, 3645, 3646, 3665, 3664
1437, 3874, 3875, 3894, 3893, 3646, 3647, 3666, 3665
1438, 3875, 3876, 3895, 3894, 3647, 3648, 3667, 3666
1439, 3876, 3877, 3896, 3895, 3648, 3649, 3668, 3667
1440, 3877, 1343, 1344, 3896, 3649, 1331, 1332, 3668
1441, 1296, 3878, 3897, 1297, 1284, 3650, 3669, 1285
1442, 3878, 3879, 3898, 3897, 3650, 3651, 3670, 3669
1443, 3879, 3880, 3899, 3898, 3651, 3652, 3671, 3670
1444, 3880, 3881, 3900, 3899, 3652, 3653, 3672, 3671
1445, 3881, 3882, 3901, 3900, 3653, 3654, 3673, 3672
1446, 3882, 3883, 3902, 3901, 3654, 3655, 3674, 3673
1447, 3883, 3884, 3903, 3902, 3655, 3656, 3675, 3674
1448, 3884, 3885, 3904, 3903, 3656, 3657, 3676, 3675
1449, 3885, 3886, 3905, 3904, 3657, 3658, 3677, 3676
1450, 3886, 3887, 3906, 3905, 3658, 3659, 3678, 3677
1451, 3887, 3888, 3907, 3906, 3659, 3660, 3679, 3678
1452, 3888, 3889, 3908, 3907, 3660, 3661, 3680, 3679
1453, 3889, 3890, 3909, 3908, 3661, 3662, 3681, 3680
1454, 3890, 3891, 3910, 3909, 3662, 3663, 3682, 3681
1455, 3891, 3892, 3911, 3910, 3663, 3664, 3683, 3682
1456, 3892, 3893, 3912, 3911, 3664, 3665, 3684, 3683
1457, 3893, 3894, 3913, 3912, 3665, 3666, 3685, 3684
1458, 3894, 3895, 3914, 3913, 3666, 3667, 3686, 3685
1459, 3895, 3896, 3915, 3914, 3667, 3668, 3687, 3686
1460, 3896, 1344, 1345, 3915, 3668, 1332, 1333, 3687
1461, 1297, 3897, 3916, 1298, 1285, 3669, 3688, 1286
1462, 3897, 3898, 3917, 3916, 3669, 3670, 3689, 3688
1463, 3898, 3899, 3918, 3917, 3670, 3671, 3690, 3689
1464, 3899, 3900, 3919, 3918, 3671, 3672, 3691, 3690
1465, 3900, 3901, 3920, 3919, 3672, 3673, 3692, 3691
1466, 3901, 3902, 3921, 3920, 3673, 3674, 3693, 3692
1467, 3902, 3903, 3922, 3921, 3674, 3675, 3694, 3693
1468, 3903, 3904, 3923, 3922, 3675, 3676, 3695, 3694
1469, 3904, 3905, 3924, 3923, 3676, 3677, 3696, 3695
1470, 3905, 3906, 3925, 3924, 3677, 3678, 3697, 3696
1471, 3906, 3907, 3926, 3925, 3678, 3679, 3698, 3697
1472, 3907, 3908, 3927, 3926, 3679, 3680, 3699, 3698
1473, 3908, 3909, 3928, 3927, 3680, 3681, 3700, 3699
1474, 3909, 3910, 3929, 3928, 3681, 3682, 3701, 3700
1475, 3910, 3911, 3930, 3929, 3682, 3683, 3702, 3701
1476, 3911, 3912, 3931, 3930, 3683, 3684, 3703, 3702
1477, 3912, 3913, 3932, 3931, 3684, 3685, 3704, 3703
1478, 3913, 3914, 3933, 3932, 3685, 3686, 3705, 3704
1479, 3914, 3915, 3934, 3933, 3686, 3687, 3706, 3705
1480, 3915, 1345, 1346, 3934, 3687, 1333, 1334, 3706
1481, 1298, 3916, 3935, 1299, 1286, 3688, 3707, 1287
1482, 3916, 3917, 3936, 3935, 3688, 3689, 3708, 3707
1483, 3917, 3918, 3937, 3936, 3689, 3690, 3709, 3708
1484, 3918, 3919, 3938, 3937, 3690, 3691, 3710, 3709
1485, 3919, 3920, 3939, 3938, 3691, 3692, 3711, 3710
1486, 3920, 3921, 3940, 3939, 3692, 3693, 3712, 3711
1487, 3921, 3922, 3941, 3940, 3693, 3694, 3713, 3712
1488, 3922, 3923, 3942, 3941, 3694, 3695, 3714, 3713
1489, 3923, 3924, 3943, 3942, 3695, 3696, 3715, 3714
1490, 3924, 3925, 3944, 3943, 3696, 3697, 3716, 3715
1491, 3925, 3926, 3945, 3944, 3697, 3698, 3717, 3716
1492, 3926, 3927, 3946, 3945, 3698, 3699, 3718, 3717
1493, 3927, 3928, 3947, 3946, 3699, 3700, 3719, 3718
1494, 3928, 3929, 3948, 3947, 3700, 3701, 3720, 3719
1495, 3929, 3930, 3949, 3948, 3701, 3702, 3721, 3720
1496, 3930, 3931, 3950, 3949, 3702, 3703, 3722, 3721
1497, 3931, 3932, 3951, 3950, 3703, 3704, 3723, 3722
1498, 3932, 3933, 3952, 3951, 3704, 3705, 3724, 3723
1499, 3933, 3934, 3953, 3952, 3705, 3706, 3725, 3724
1500, 3934, 1346, 1347, 3953, 3706, 1334, 1335, 3725
1501, 1299, 3935, 3954, 1300, 1287, 3707, 3726, 1288
1502, 3935, 3936, 3955, 3954, 3707, 3708, 3727, 3726
1503, 3936, 3937, 3956, 3955, 3708, 3709, 3728, 3727
1504, 3937, 3938, 3957, 3956, 3709, 3710, 3729, 3728
1505, 3938, 3939, 3958, 3957, 3710, 3711, 3730, 3729
1506, 3939, 3940, 3959, 3958, 3711, 3712, 3731, 3730
1507, 3940, 3941, 3960, 3959, 3712, 3713, 3732, 3731
1508, 3941, 3942, 3961, 3960, 3713, 3714, 3733, 3732
1509, 3942, 3943, 3962, 3961, 3714, 3715, 3734, 3733
1510, 3943, 3944, 3963, 3962, 3715, 3716, 3735, 3734
1511, 3944, 3945, 3964, 3963, 3716, 3717, 3736, 3735
1512, 3945, 3946, 3965, 3964, 3717, 3718, 3737, 3736
1513, 3946, 3947, 3966, 3965, 3718, 3719, 3738, 3737
1514, 3947, 3948, 3967, 3966, 3719, 3720, 3739, 3738
1515, 3948, 3949, 3968, 3967, 3720, 3721, 3740, 3739
1516, 3949, 3950, 3969, 3968, 3721, 3722, 3741, 3740
1517, 3950, 3951, 3970, 3969, 3722, 3723, 3742, 3741
1518, 3951, 3952, 3971, 3970, 3723, 3724, 3743, 3742
1519, 3952, 3953, 3972, 3971, 3724, 3725, 3744, 3743
1520, 3953, 1347, 1348, 3972, 3725, 1335, 1336, 3744
1521, 1300, 3954, 1406,  222, 1288, 3726, 1387,  221
1522, 3954, 3955, 1407, 1406, 3726, 3727, 1388, 1387
1523, 3955, 3956, 1408, 1407, 3727, 3728, 1389, 1388
1524, 3956, 3957, 1409, 1408, 3728, 3729, 1390, 1389
1525, 3957, 3958, 1410, 1409, 3729, 3730, 1391, 1390
1526, 3958, 3959, 1411, 1410, 3730, 3731, 1392, 1391
1527, 3959, 3960, 1412, 1411, 3731, 3732, 1393, 1392
1528, 3960, 3961, 1413, 1412, 3732, 3733, 1394, 1393
1529, 3961, 3962, 1414, 1413, 3733, 3734, 1395, 1394
1530, 3962, 3963, 1415, 1414, 3734, 3735, 1396, 1395
1531, 3963, 3964, 1416, 1415, 3735, 3736, 1397, 1396
1532, 3964, 3965, 1417, 1416, 3736, 3737, 1398, 1397
1533, 3965, 3966, 1418, 1417, 3737, 3738, 1399, 1398
1534, 3966, 3967, 1419, 1418, 3738, 3739, 1400, 1399
1535, 3967, 3968, 1420, 1419, 3739, 3740, 1401, 1400
1536, 3968, 3969, 1421, 1420, 3740, 3741, 1402, 1401
1537, 3969, 3970, 1422, 1421, 3741, 3742, 1403, 1402
1538, 3970, 3971, 1423, 1422, 3742, 3743, 1404, 1403
1539, 3971, 3972, 1424, 1423, 3743, 3744, 1405, 1404
1540, 3972, 1348,  223, 1424, 3744, 1336,  224, 1405
1541,    7,   94, 1025,  207,  120,  778, 3745, 1289
1542,   94,   95, 1026, 1025,  778,  779, 3746, 3745
1543,   95,   96, 1027, 1026,  779,  780, 3747, 3746
1544,   96,   97, 1028, 1027,  780,  781, 3748, 3747
1545,   97,   98, 1029, 1028,  781,  782, 3749, 3748
1546,   98,   99, 1030, 1029,  782,  783, 3750, 3749
1547,   99,  100, 1031, 1030,  783,  784, 3751, 3750
1548,  100,  101, 1032, 1031,  784,  785, 3752, 3751
1549,  101,  102, 1033, 1032,  785,  786, 3753, 3752
1550,  102,  103, 1034, 1033,  786,  787, 3754, 3753
1551,  103,  104, 1035, 1034,  787,  788, 3755, 3754
1552,  104,  105, 1036, 1035,  788,  789, 3756, 3755
1553,  105,  106, 1037, 1036,  789,  790, 3757, 3756
1554,  106,  107, 1038, 1037,  790,  791, 3758, 3757
1555,  107,  108, 1039, 1038,  791,  792, 3759, 3758
1556,  108,  109, 1040, 1039,  792,  793, 3760, 3759
1557,  109,  110, 1041, 1040,  793,  794, 3761, 3760
1558,  110,  111, 1042, 1041,  794,  795, 3762, 3761
1559,  111,  112, 1043, 1042,  795,  796, 3763, 3762
1560,  112,    6,  187, 1043,  796,  125, 1337, 3763
1561,  207, 1025, 1044,  208, 1289, 3745, 3764, 1290
1562, 1025, 1026, 1045, 1044, 3745, 3746, 3765, 3764
1563, 1026, 1027, 1046, 1045, 3746, 3747, 3766, 3765
1564, 1027, 1028, 1047, 1046, 3747, 3748, 3767, 3766
1565, 1028, 1029, 1048, 1047, 3748, 3749, 3768, 3767
1566, 1029, 1030, 1049, 1048, 3749, 3750, 3769, 3768
1567, 1030, 1031, 1050, 1049, 3750, 3751, 3770, 3769
1568, 1031, 1032, 1051, 1050, 3751, 3752, 3771, 3770
1569, 1032, 1033, 1052, 1051, 3752, 3753, 3772, 3771
1570, 1033, 1034, 1053, 1052, 3753, 3754, 3773, 3772
1571, 1034, 1035, 1054, 1053, 3754, 3755, 3774, 3773
1572, 1035, 1036, 1055, 1054, 3755, 3756, 3775, 3774
1573, 1036, 1037, 1056, 1055, 3756, 3757, 3776, 3775
1574, 1037, 1038, 1057, 1056, 3757, 3758, 3777, 3776
1575, 1038, 1039, 1058, 1057, 3758, 3759, 3778, 3777
1576, 1039, 1040, 1059, 1058, 3759, 3760, 3779, 3778
1577, 1040, 1041, 1060, 1059, 3760, 3761, 3780, 3779
1578, 1041, 1042, 1061, 1060, 3761, 3762, 3781, 3780
1579, 1042, 1043, 1062, 1061, 3762, 3763, 3782, 3781
1580, 1043,  187,  186, 1062, 3763, 1337, 1338, 3782
1581,  208, 1044, 1063,  209, 1290, 3764, 3783, 1291
1582, 1044, 1045, 1064, 1063, 3764, 3765, 3784, 3783
1583, 1045, 1046, 1065, 1064, 3765, 3766, 3785, 3784
1584, 1046, 1047, 1066, 1065, 3766, 3767, 3786, 3785
1585, 1047, 1048, 1067, 1066, 3767, 3768, 3787, 3786
1586, 1048, 1049, 1068, 1067, 3768, 3769, 3788, 3787
1587, 1049, 1050, 1069, 1068, 3769, 3770, 3789, 3788
1588, 1050, 1051, 1070, 1069, 3770, 3771, 3790, 3789
1589, 1051, 1052, 1071, 1070, 3771, 3772, 3791, 3790
1590, 1052, 1053, 1072, 1071, 3772, 3773, 3792, 3791
1591, 1053, 1054, 1073, 1072, 3773, 3774, 3793, 3792
1592, 1054, 1055, 1074, 1073, 3774, 3775, 3794, 3793
1593, 1055, 1056, 1075, 1074, 3775, 3776, 3795, 3794
1594, 1056, 1057, 1076, 1075, 3776, 3777, 3796, 3795
1595, 1057, 1058, 1077, 1076, 3777, 3778, 3797, 3796
1596, 1058, 1059, 1078, 1077, 3778, 3779, 3798, 3797
1597, 1059, 1060, 1079, 1078, 3779, 3780, 3799, 3798
1598, 1060, 1061, 1080, 1079, 3780, 3781, 3800, 3799
1599, 1061, 1062, 1081, 1080, 3781, 3782, 3801, 3800
1600, 1062,  186,  185, 1081, 3782, 1338, 1339, 3801
1601,  209, 1063, 1082,  210, 1291, 3783, 3802, 1292
1602, 1063, 1064, 1083, 1082, 3783, 3784, 3803, 3802
1603, 1064, 1065, 1084, 1083, 3784, 3785, 3804, 3803
1604, 1065, 1066, 1085, 1084, 3785, 3786, 3805, 3804
1605, 1066, 1067, 1086, 1085, 3786, 3787, 3806, 3805
1606, 1067, 1068, 1087, 1086, 3787, 3788, 3807, 3806
1607, 1068, 1069, 1088, 1087, 3788, 3789, 3808, 3807
1608, 1069, 1070, 1089, 1088, 3789, 3790, 3809, 3808
1609, 1070, 1071, 1090, 1089, 3790, 3791, 3810, 3809
1610, 1071, 1072, 1091, 1090, 3791, 3792, 3811, 3810
1611, 1072, 1073, 1092, 1091, 3792, 3793, 3812, 3811
1612, 1073, 1074, 1093, 1092, 3793, 3794, 3813, 3812
1613, 1074, 1075, 1094, 1093, 3794, 3795, 3814, 3813
1614, 1075, 1076, 1095, 1094, 3795, 3796, 3815, 3814
1615, 1076, 1077, 1096, 1095, 3796, 3797, 3816, 3815
1616, 1077, 1078, 1097, 1096, 3797, 3798, 3817, 3816
1617, 1078, 1079, 1098, 1097, 3798, 3799, 3818, 3817
1618, 1079, 1080, 1099, 1098, 3799, 3800, 3819, 3818
1619, 1080, 1081, 1100, 1099, 3800, 3801, 3820, 3819
1620, 1081,  185,  184, 1100, 3801, 1339, 1340, 3820
1621,  210, 1082, 1101,  211, 1292, 3802, 3821, 1293
1622, 1082, 1083, 1102, 1101, 3802, 3803, 3822, 3821
1623, 1083, 1084, 1103, 1102, 3803, 3804, 3823, 3822
1624, 1084, 1085, 1104, 1103, 3804, 3805, 3824, 3823
1625, 1085, 1086, 1105, 1104, 3805, 3806, 3825, 3824
1626, 1086, 1087, 1106, 1105, 3806, 3807, 3826, 3825
1627, 1087, 1088, 1107, 1106, 3807, 3808, 3827, 3826
1628, 1088, 1089, 1108, 1107, 3808, 3809, 3828, 3827
1629, 1089, 1090, 1109, 1108, 3809, 3810, 3829, 3828
1630, 1090, 1091, 1110, 1109, 3810, 3811, 3830, 3829
1631, 1091, 1092, 1111, 1110, 3811, 3812, 3831, 3830
1632, 1092, 1093, 1112, 1111, 3812, 3813, 3832, 3831
1633, 1093, 1094, 1113, 1112, 3813, 3814, 3833, 3832
1634, 1094, 1095, 1114, 1113, 3814, 3815, 3834, 3833
1635, 1095, 1096, 1115, 1114, 3815, 3816, 3835, 3834
1636, 1096, 1097, 1116, 1115, 3816, 3817, 3836, 3835
1637, 1097, 1098, 1117, 1116, 3817, 3818, 3837, 3836
1638, 1098, 1099, 1118, 1117, 3818, 3819, 3838, 3837
1639, 1099, 1100, 1119, 1118, 3819, 3820, 3839, 3838
1640, 1100,  184,  183, 1119, 3820, 1340, 1341, 3839
1641,  211, 1101, 1120,  212, 1293, 3821, 3840, 1294
1642, 1101, 1102, 1121, 1120, 3821, 3822, 3841, 3840
1643, 1102, 1103, 1122, 1121, 3822, 3823, 3842, 3841
1644, 1103, 1104, 1123, 1122, 3823, 3824, 3843, 3842
1645, 1104, 1105, 1124, 1123, 3824, 3825, 3844, 3843
1646, 1105, 1106, 1125, 1124, 3825, 3826, 3845, 3844
1647, 1106, 1107, 1126, 1125, 3826, 3827, 3846, 3845
1648, 1107, 1108, 1127, 1126, 3827, 3828, 3847, 3846
1649, 1108, 1109, 1128, 1127, 3828, 3829, 3848, 3847
1650, 1109, 1110, 1129, 1128, 3829, 3830, 3849, 3848
1651, 1110, 1111, 1130, 1129, 3830, 3831, 3850, 3849
1652, 1111, 1112, 1131, 1130, 3831, 3832, 3851, 3850
1653, 1112, 1113, 1132, 1131, 3832, 3833, 3852, 3851
1654, 1113, 1114, 1133, 1132, 3833, 3834, 3853, 3852
1655, 1114, 1115, 1134, 1133, 3834, 3835, 3854, 3853
1656, 1115, 1116, 1135, 1134, 3835, 3836, 3855, 3854
1657, 1116, 1117, 1136, 1135, 3836, 3837, 3856, 3855
1658, 1117, 1118, 1137, 1136, 3837, 3838, 3857, 3856
1659, 1118, 1119, 1138, 1137, 3838, 3839, 3858, 3857
1660, 1119,  183,  182, 1138, 3839, 1341, 1342, 3858
1661,  212, 1120, 1139,  213, 1294, 3840, 3859, 1295
1662, 1120, 1121, 1140, 1139, 3840, 3841, 3860, 3859
1663, 1121, 1122, 1141, 1140, 3841, 3842, 3861, 3860
1664, 1122, 1123, 1142, 1141, 3842, 3843, 3862, 3861
1665, 1123, 1124, 1143, 1142, 3843, 3844, 3863, 3862
1666, 1124, 1125, 1144, 1143, 3844, 3845, 3864, 3863
1667, 1125, 1126, 1145, 1144, 3845, 3846, 3865, 3864
1668, 1126, 1127, 1146, 1145, 3846, 3847, 3866, 3865
1669, 1127, 1128, 1147, 1146, 3847, 3848, 3867, 3866
1670, 1128, 1129, 1148, 1147, 3848, 3849, 3868, 3867
1671, 1129, 1130, 1149, 1148, 3849, 3850, 3869, 3868
1672, 1130, 1131, 1150, 1149, 3850, 3851, 3870, 3869
1673, 1131, 1132, 1151, 1150, 3851, 3852, 3871, 3870
1674, 1132, 1133, 1152, 1151, 3852, 3853, 3872, 3871
1675, 1133, 1134, 1153, 1152, 3853, 3854, 3873, 3872
1676, 1134, 1135, 1154, 1153, 3854, 3855, 3874, 3873
1677, 1135, 1136, 1155, 1154, 3855, 3856, 3875, 3874
1678, 1136, 1137, 1156, 1155, 3856, 3857, 3876, 3875
1679, 1137, 1138, 1157, 1156, 3857, 3858, 3877, 3876
1680, 1138,  182,  181, 1157, 3858, 1342, 1343, 3877
1681,  213, 1139, 1158,  214, 1295, 3859, 3878, 1296
1682, 1139, 1140, 1159, 1158, 3859, 3860, 3879, 3878
1683, 1140, 1141, 1160, 1159, 3860, 3861, 3880, 3879
1684, 1141, 1142, 1161, 1160, 3861, 3862, 3881, 3880
1685, 1142, 1143, 1162, 1161, 3862, 3863, 3882, 3881
1686, 1143, 1144, 1163, 1162, 3863, 3864, 3883, 3882
1687, 1144, 1145, 1164, 1163, 3864, 3865, 3884, 3883
1688, 1145, 1146, 1165, 1164, 3865, 3866, 3885, 3884
1689, 1146, 1147, 1166, 1165, 3866, 3867, 3886, 3885
1690, 1147, 1148, 1167, 1166, 3867, 3868, 3887, 3886
1691, 1148, 1149, 1168, 1167, 3868, 3869, 3888, 3887
1692, 1149, 1150, 1169, 1168, 3869, 3870, 3889, 3888
1693, 1150, 1151, 1170, 1169, 3870, 3871, 3890, 3889
1694, 1151, 1152, 1171, 1170, 3871, 3872, 3891, 3890
1695, 1152, 1153, 1172, 1171, 3872, 3873, 3892, 3891
1696, 1153, 1154, 1173, 1172, 3873, 3874, 3893, 3892
1697, 1154, 1155, 1174, 1173, 3874, 3875, 3894, 3893
1698, 1155, 1156, 1175, 1174, 3875, 3876, 3895, 3894
1699, 1156, 1157, 1176, 1175, 3876, 3877, 3896, 3895
1700, 1157,  181,  180, 1176, 3877, 1343, 1344, 3896
1701,  214, 1158, 1177,  215, 1296, 3878, 3897, 1297
1702, 1158, 1159, 1178, 1177, 3878, 3879, 3898, 3897
1703, 1159, 1160, 1179, 1178, 3879, 3880, 3899, 3898
1704, 1160, 1161, 1180, 1179, 3880, 3881, 3900, 3899
1705, 1161, 1162, 1181, 1180, 3881, 3882, 3901, 3900
1706, 1162, 1163, 1182, 1181, 3882, 3883, 3902, 3901
1707, 1163, 1164, 1183, 1182, 3883, 3884, 3903, 3902
1708, 1164, 1165, 1184, 1183, 3884, 3885, 3904, 3903
1709, 1165, 1166, 1185, 1184, 3885, 3886, 3905, 3904
1710, 1166, 1167, 1186, 1185, 3886, 3887, 3906, 3905
1711, 1167, 1168, 1187, 1186, 3887, 3888, 3907, 3906
1712, 1168, 1169, 1188, 1187, 3888, 3889, 3908, 3907
1713, 1169, 1170, 1189, 1188, 3889, 3890, 3909, 3908
1714, 1170, 1171, 1190, 1189, 3890, 3891, 3910, 3909
1715, 1171, 1172, 1191, 1190, 3891, 3892, 3911, 3910
1716, 1172, 1173, 1192, 1191, 3892, 3893, 3912, 3911
1717, 1173, 1174, 1193, 1192, 3893, 3894, 3913, 3912
1718, 1174, 1175, 1194, 1193, 3894, 3895, 3914, 3913
1719, 1175, 1176, 1195, 1194, 3895, 3896, 3915, 3914
1720, 1176,  180,  179, 1195, 3896, 1344, 1345, 3915
1721,  215, 1177, 1196,  216, 1297, 3897, 3916, 1298
1722, 1177, 1178, 1197, 1196, 3897, 3898, 3917, 3916
1723, 1178, 1179, 1198, 1197, 3898, 3899, 3918, 3917
1724, 1179, 1180, 1199, 1198, 3899, 3900, 3919, 3918
1725, 1180, 1181, 1200, 1199, 3900, 3901, 3920, 3919
1726, 1181, 1182, 1201, 1200, 3901, 3902, 3921, 3920
1727, 1182, 1183, 1202, 1201, 3902, 3903, 3922, 3921
1728, 1183, 1184, 1203, 1202, 3903, 3904, 3923, 3922
1729, 1184, 1185, 1204, 1203, 3904, 3905, 3924, 3923
1730, 1185, 1186, 1205, 1204, 3905, 3906, 3925, 3924
1731, 1186, 1187, 1206, 1205, 3906, 3907, 3926, 3925
1732, 1187, 1188, 1207, 1206, 3907, 3908, 3927, 3926
1733, 1188, 1189, 1208, 1207, 3908, 3909, 3928, 3927
1734, 1189, 1190, 1209, 1208, 3909, 3910, 3929, 3928
1735, 1190, 1191, 1210, 1209, 3910, 3911, 3930, 3929
1736, 1191, 1192, 1211, 1210, 3911, 3912, 3931, 3930
1737, 1192, 1193, 1212, 1211, 3912, 3913, 3932, 3931
1738, 1193, 1194, 1213, 1212, 3913, 3914, 3933, 3932
1739, 1194, 1195, 1214, 1213, 3914, 3915, 3934, 3933
1740, 1195,  179,  178, 1214, 3915, 1345, 1346, 3934
1741,  216, 1196, 1215,  217, 1298, 3916, 3935, 1299
1742, 1196, 1197, 1216, 1215, 3916, 3917, 3936, 3935
1743, 1197, 1198, 1217, 1216, 3917, 3918, 3937, 3936
1744, 1198, 1199, 1218, 1217, 3918, 3919, 3938, 3937
1745, 1199, 1200, 1219, 1218, 3919, 3920, 3939, 3938
1746, 1200, 1201, 1220, 1219, 3920, 3921, 3940, 3939
1747, 1201, 1202, 1221, 1220, 3921, 3922, 3941, 3940
1748, 1202, 1203, 1222, 1221, 3922, 3923, 3942, 3941
1749, 1203, 1204, 1223, 1222, 3923, 3924, 3943, 3942
1750, 1204, 1205, 1224, 1223, 3924, 3925, 3944, 3943
1751, 1205, 1206, 1225, 1224, 3925, 3926, 3945, 3944
1752, 1206, 1207, 1226, 1225, 3926, 3927, 3946, 3945
1753, 1207, 1208, 1227, 1226, 3927, 3928, 3947, 3946
1754, 1208, 1209, 1228, 1227, 3928, 3929, 3948, 3947
1755, 1209, 1210, 1229, 1228, 3929, 3930, 3949, 3948
1756, 1210, 1211, 1230, 1229, 3930, 3931, 3950, 3949
1757, 1211, 1212, 1231, 1230, 3931, 3932, 3951, 3950
1758, 1212, 1213, 1232, 1231, 3932, 3933, 3952, 3951
1759, 1213, 1214, 1233, 1232, 3933, 3934, 3953, 3952
1760, 1214,  178,  177, 1233, 3934, 1346, 1347, 3953
1761,  217, 1215, 1234,  218, 1299, 3935, 3954, 1300
1762, 1215, 1216, 1235, 1234, 3935, 3936, 3955, 3954
1763, 1216, 1217, 1236, 1235, 3936, 3937, 3956, 3955
1764, 1217, 1218, 1237, 1236, 3937, 3938, 3957, 3956
1765, 1218, 1219, 1238, 1237, 3938, 3939, 3958, 3957
1766, 1219, 1220, 1239, 1238, 3939, 3940, 3959, 3958
1767, 1220, 1221, 1240, 1239, 3940, 3941, 3960, 3959
1768, 1221, 1222, 1241, 1240, 3941, 3942, 3961, 3960
1769, 1222, 1223, 1242, 1241, 3942, 3943, 3962, 3961
1770, 1223, 1224, 1243, 1242, 3943, 3944, 3963, 3962
1771, 1224, 1225, 1244, 1243, 3944, 3945, 3964, 3963
1772, 1225, 1226, 1245, 1244, 3945, 3946, 3965, 3964
1773, 1226, 1227, 1246, 1245, 3946, 3947, 3966, 3965
1774, 1227, 1228, 1247, 1246, 3947, 3948, 3967, 3966
1775, 1228, 1229, 1248, 1247, 3948, 3949, 3968, 3967
1776, 1229, 1230, 1249, 1248, 3949, 3950, 3969, 3968
1777, 1230, 1231, 1250, 1249, 3950, 3951, 3970, 3969
1778, 1231, 1232, 1251, 1250, 3951, 3952, 3971, 3970
1779, 1232, 1233, 1252, 1251, 3952, 3953, 3972, 3971
1780, 1233,  177,  176, 1252, 3953, 1347, 1348, 3972
1781,  218, 1234,  188,   12, 1300, 3954, 1406,  222
1782, 1234, 1235,  189,  188, 3954, 3955, 1407, 1406
1783, 1235, 1236,  190,  189, 3955, 3956, 1408, 1407
1784, 1236, 1237,  191,  190, 3956, 3957, 1409, 1408
1785, 1237, 1238,  192,  191, 3957, 3958, 1410, 1409
1786, 1238, 1239,  193,  192, 3958, 3959, 1411, 1410
1787, 1239, 1240,  194,  193, 3959, 3960, 1412, 1411
1788, 1240, 1241,  195,  194, 3960, 3961, 1413, 1412
1789, 1241, 1242,  196,  195, 3961, 3962, 1414, 1413
1790, 1242, 1243,  197,  196, 3962, 3963, 1415, 1414
1791, 1243, 1244,  198,  197, 3963, 3964, 1416, 1415
1792, 1244, 1245,  199,  198, 3964, 3965, 1417, 1416
1793, 1245, 1246,  200,  199, 3965, 3966, 1418, 1417
1794, 1246, 1247,  201,  200, 3966, 3967, 1419, 1418
1795, 1247, 1248,  202,  201, 3967, 3968, 1420, 1419
1796, 1248, 1249,  203,  202, 3968, 3969, 1421, 1420
1797, 1249, 1250,  204,  203, 3969, 3970, 1422, 1421
1798, 1250, 1251,  205,  204, 3970, 3971, 1423, 1422
1799, 1251, 1252,  206,  205, 3971, 3972, 1424, 1423
1800, 1252,  176,   11,  206, 3972, 1348,  223, 1424
1801,  223, 1424, 3973, 1995,   11,  206, 1425,  275
1802, 1424, 1423, 3974, 3973,  206,  205, 1426, 1425
1803, 1423, 1422, 3975, 3974,  205,  204, 1427, 1426
1804, 1422, 1421, 3976, 3975,  204,  203, 1428, 1427
1805, 1421, 1420, 3977, 3976,  203,  202, 1429, 1428
1806, 1420, 1419, 3978, 3977,  202,  201, 1430, 1429
1807, 1419, 1418, 3979, 3978,  201,  200, 1431, 1430
1808, 1418, 1417, 3980, 3979,  200,  199, 1432, 1431
1809, 1417, 1416, 3981, 3980,  199,  198, 1433, 1432
1810, 1416, 1415, 3982, 3981,  198,  197, 1434, 1433
1811, 1415, 1414, 3983, 3982,  197,  196, 1435, 1434
1812, 1414, 1413, 3984, 3983,  196,  195, 1436, 1435
1813, 1413, 1412, 3985, 3984,  195,  194, 1437, 1436
1814, 1412, 1411, 3986, 3985,  194,  193, 1438, 1437
1815, 1411, 1410, 3987, 3986,  193,  192, 1439, 1438
1816, 1410, 1409, 3988, 3987,  192,  191, 1440, 1439
1817, 1409, 1408, 3989, 3988,  191,  190, 1441, 1440
1818, 1408, 1407, 3990, 3989,  190,  189, 1442, 1441
1819, 1407, 1406, 3991, 3990,  189,  188, 1443, 1442
1820, 1406,  222, 2055, 3991,  188,   12,  227, 1443
1821, 1995, 3973, 3992, 1996,  275, 1425, 1444,  274
1822, 3973, 3974, 3993, 3992, 1425, 1426, 1445, 1444
1823, 3974, 3975, 3994, 3993, 1426, 1427, 1446, 1445
1824, 3975, 3976, 3995, 3994, 1427, 1428, 1447, 1446
1825, 3976, 3977, 3996, 3995, 1428, 1429, 1448, 1447
1826, 3977, 3978, 3997, 3996, 1429, 1430, 1449, 1448
1827, 3978, 3979, 3998, 3997, 1430, 1431, 1450, 1449
1828, 3979, 3980, 3999, 3998, 1431, 1432, 1451, 1450
1829, 3980, 3981, 4000, 3999, 1432, 1433, 1452, 1451
1830, 3981, 3982, 4001, 4000, 1433, 1434, 1453, 1452
1831, 3982, 3983, 4002, 4001, 1434, 1435, 1454, 1453
1832, 3983, 3984, 4003, 4002, 1435, 1436, 1455, 1454
1833, 3984, 3985, 4004, 4003, 1436, 1437, 1456, 1455
1834, 3985, 3986, 4005, 4004, 1437, 1438, 1457, 1456
1835, 3986, 3987, 4006, 4005, 1438, 1439, 1458, 1457
1836, 3987, 3988, 4007, 4006, 1439, 1440, 1459, 1458
1837, 3988, 3989, 4008, 4007, 1440, 1441, 1460, 1459
1838, 3989, 3990, 4009, 4008, 1441, 1442, 1461, 1460
1839, 3990, 3991, 4010, 4009, 1442, 1443, 1462, 1461
1840, 3991, 2055, 2056, 4010, 1443,  227,  228, 1462
1841, 1996, 3992, 4011, 1997,  274, 1444, 1463,  273
1842, 3992, 3993, 4012, 4011, 1444, 1445, 1464, 1463
1843, 3993, 3994, 4013, 4012, 1445, 1446, 1465, 1464
1844, 3994, 3995, 4014, 4013, 1446, 1447, 1466, 1465
1845, 3995, 3996, 4015, 4014, 1447, 1448, 1467, 1466
1846, 3996, 3997, 4016, 4015, 1448, 1449, 1468, 1467
1847, 3997, 3998, 4017, 4016, 1449, 1450, 1469, 1468
1848, 3998, 3999, 4018, 4017, 1450, 1451, 1470, 1469
1849, 3999, 4000, 4019, 4018, 1451, 1452, 1471, 1470
1850, 4000, 4001, 4020, 4019, 1452, 1453, 1472, 1471
1851, 4001, 4002, 4021, 4020, 1453, 1454, 1473, 1472
1852, 4002, 4003, 4022, 4021, 1454, 1455, 1474, 1473
1853, 4003, 4004, 4023, 4022, 1455, 1456, 1475, 1474
1854, 4004, 4005, 4024, 4023, 1456, 1457, 1476, 1475
1855, 4005, 4006, 4025, 4024, 1457, 1458, 1477, 1476
1856, 4006, 4007, 4026, 4025, 1458, 1459, 1478, 1477
1857, 4007, 4008, 4027, 4026, 1459, 1460, 1479, 1478
1858, 4008, 4009, 4028, 4027, 1460, 1461, 1480, 1479
1859, 4009, 4010, 4029, 4028, 1461, 1462, 1481, 1480
1860, 4010, 2056, 2057, 4029, 1462,  228,  229, 1481
1861, 1997, 4011, 4030, 1998,  273, 1463, 1482,  272
1862, 4011, 4012, 4031, 4030, 1463, 1464, 1483, 1482
1863, 4012, 4013, 4032, 4031, 1464, 1465, 1484, 1483
1864, 4013, 4014, 4033, 4032, 1465, 1466, 1485, 1484
1865, 4014, 4015, 4034, 4033, 1466, 1467, 1486, 1485
1866, 4015, 4016, 4035, 4034, 1467, 1468, 1487, 1486
1867, 4016, 4017, 4036, 4035, 1468, 1469, 1488, 1487
1868, 4017, 4018, 4037, 4036, 1469, 1470, 1489, 1488
1869, 4018, 4019, 4038, 4037, 1470, 1471, 1490, 1489
1870, 4019, 4020, 4039, 4038, 1471, 1472, 1491, 1490
1871, 4020, 4021, 4040, 4039, 1472, 1473, 1492, 1491
1872, 4021, 4022, 4041, 4040, 1473, 1474, 1493, 1492
1873, 4022, 4023, 4042, 4041, 1474, 1475, 1494, 1493
1874, 4023, 4024, 4043, 4042, 1475, 1476, 1495, 1494
1875, 4024, 4025, 4044, 4043, 1476, 1477, 1496, 1495
1876, 4025, 4026, 4045, 4044, 1477, 1478, 1497, 1496
1877, 4026, 4027, 4046, 4045, 1478, 1479, 1498, 1497
1878, 4027, 4028, 4047, 4046, 1479, 1480, 1499, 1498
1879, 4028, 4029, 4048, 4047, 1480, 1481, 1500, 1499
1880, 4029, 2057, 2058, 4048, 1481,  229,  230, 1500
1881, 1998, 4030, 4049, 1999,  272, 1482, 1501,  271
1882, 4030, 4031, 4050, 4049, 1482, 1483, 1502, 1501
1883, 4031, 4032, 4051, 4050, 1483, 1484, 1503, 1502
1884, 4032, 4033, 4052, 4051, 1484, 1485, 1504, 1503
1885, 4033, 4034, 4053, 4052, 1485, 1486, 1505, 1504
1886, 4034, 4035, 4054, 4053, 1486, 1487, 1506, 1505
1887, 4035, 4036, 4055, 4054, 1487, 1488, 1507, 1506
1888, 4036, 4037, 4056, 4055, 1488, 1489, 1508, 1507
1889, 4037, 4038, 4057, 4056, 1489, 1490, 1509, 1508
1890, 4038, 4039, 4058, 4057, 1490, 1491, 1510, 1509
1891, 4039, 4040, 4059, 4058, 1491, 1492, 1511, 1510
1892, 4040, 4041, 4060, 4059, 1492, 1493, 1512, 1511
1893, 4041, 4042, 4061, 4060, 1493, 1494, 1513, 1512
1894, 4042, 4043, 4062, 4061, 1494, 1495, 1514, 1513
1895, 4043, 4044, 4063, 4062, 1495, 1496, 1515, 1514
1896, 4044, 4045, 4064, 4063, 1496, 1497, 1516, 1515
1897, 4045, 4046, 4065, 4064, 1497, 1498, 1517, 1516
1898, 4046, 4047, 4066, 4065, 1498, 1499, 1518, 1517
1899, 4047, 4048, 4067, 4066, 1499, 1500, 1519, 1518
1900, 4048, 2058, 2059, 4067, 1500,  230,  231, 1519
1901, 1999, 4049, 4068, 2000,  271, 1501, 1520,  270
1902, 4049, 4050, 4069, 4068, 1501, 1502, 1521, 1520
1903, 4050, 4051, 4070, 4069, 1502, 1503, 1522, 1521
1904, 4051, 4052, 4071, 4070, 1503, 1504, 1523, 1522
1905, 4052, 4053, 4072, 4071, 1504, 1505, 1524, 1523
1906, 4053, 4054, 4073, 4072, 1505, 1506, 1525, 1524
1907, 4054, 4055, 4074, 4073, 1506, 1507, 1526, 1525
1908, 4055, 4056, 4075, 4074, 1507, 1508, 1527, 1526
1909, 4056, 4057, 4076, 4075, 1508, 1509, 1528, 1527
1910, 4057, 4058, 4077, 4076, 1509, 1510, 1529, 1528
1911, 4058, 4059, 4078, 4077, 1510, 1511, 1530, 1529
1912, 4059, 4060, 4079, 4078, 1511, 1512, 1531, 1530
1913, 4060, 4061, 4080, 4079, 1512, 1513, 1532, 1531
1914, 4061, 4062, 4081, 4080, 1513, 1514, 1533, 1532
1915, 4062, 4063, 4082, 4081, 1514, 1515, 1534, 1533
1916, 4063, 4064, 4083, 4082, 1515, 1516, 1535, 1534
1917, 4064, 4065, 4084, 4083, 1516, 1517, 1536, 1535
1918, 4065, 4066, 4085, 4084, 1517, 1518, 1537, 1536
1919, 4066, 4067, 4086, 4085, 1518, 1519, 1538, 1537
1920, 4067, 2059, 2060, 4086, 1519,  231,  232, 1538
1921, 2000, 4068, 4087, 2001,  270, 1520, 1539,  269
1922, 4068, 4069, 4088, 4087, 1520, 1521, 1540, 1539
1923, 4069, 4070, 4089, 4088, 1521, 1522, 1541, 1540
1924, 4070, 4071, 4090, 4089, 1522, 1523, 1542, 1541
1925, 4071, 4072, 4091, 4090, 1523, 1524, 1543, 1542
1926, 4072, 4073, 4092, 4091, 1524, 1525, 1544, 1543
1927, 4073, 4074, 4093, 4092, 1525, 1526, 1545, 1544
1928, 4074, 4075, 4094, 4093, 1526, 1527, 1546, 1545
1929, 4075, 4076, 4095, 4094, 1527, 1528, 1547, 1546
1930, 4076, 4077, 4096, 4095, 1528, 1529, 1548, 1547
1931, 4077, 4078, 4097, 4096, 1529, 1530, 1549, 1548
1932, 4078, 4079, 4098, 4097, 1530, 1531, 1550, 1549
1933, 4079, 4080, 4099, 4098, 1531, 1532, 1551, 1550
1934, 4080, 4081, 4100, 4099, 1532, 1533, 1552, 1551
1935, 4081, 4082, 4101, 4100, 1533, 1534, 1553, 1552
1936, 4082, 4083, 4102, 4101, 1534, 1535, 1554, 1553
1937, 4083, 4084, 4103, 4102, 1535, 1536, 1555, 1554
1938, 4084, 4085, 4104, 4103, 1536, 1537, 1556, 1555
1939, 4085, 4086, 4105, 4104, 1537, 1538, 1557, 1556
1940, 4086, 2060, 2061, 4105, 1538,  232,  233, 1557
1941, 2001, 4087, 4106, 2002,  269, 1539, 1558,  268
1942, 4087, 4088, 4107, 4106, 1539, 1540, 1559, 1558
1943, 4088, 4089, 4108, 4107, 1540, 1541, 1560, 1559
1944, 4089, 4090, 4109, 4108, 1541, 1542, 1561, 1560
1945, 4090, 4091, 4110, 4109, 1542, 1543, 1562, 1561
1946, 4091, 4092, 4111, 4110, 1543, 1544, 1563, 1562
1947, 4092, 4093, 4112, 4111, 1544, 1545, 1564, 1563
1948, 4093, 4094, 4113, 4112, 1545, 1546, 1565, 1564
1949, 4094, 4095, 4114, 4113, 1546, 1547, 1566, 1565
1950, 4095, 4096, 4115, 4114, 1547, 1548, 1567, 1566
1951, 4096, 4097, 4116, 4115, 1548, 1549, 1568, 1567
1952, 4097, 4098, 4117, 4116, 1549, 1550, 1569, 1568
1953, 4098, 4099, 4118, 4117, 1550, 1551, 1570, 1569
1954, 4099, 4100, 4119, 4118, 1551, 1552, 1571, 1570
1955, 4100, 4101, 4120, 4119, 1552, 1553, 1572, 1571
1956, 4101, 4102, 4121, 4120, 1553, 1554, 1573, 1572
1957, 4102, 4103, 4122, 4121, 1554, 1555, 1574, 1573
1958, 4103, 4104, 4123, 4122, 1555, 1556, 1575, 1574
1959, 4104, 4105, 4124, 4123, 1556, 1557, 1576, 1575
1960, 4105, 2061, 2062, 4124, 1557,  233,  234, 1576
1961, 2002, 4106, 4125, 2003,  268, 1558, 1577,  267
1962, 4106, 4107, 4126, 4125, 1558, 1559, 1578, 1577
1963, 4107, 4108, 4127, 4126, 1559, 1560, 1579, 1578
1964, 4108, 4109, 4128, 4127, 1560, 1561, 1580, 1579
1965, 4109, 4110, 4129, 4128, 1561, 1562, 1581, 1580
1966, 4110, 4111, 4130, 4129, 1562, 1563, 1582, 1581
1967, 4111, 4112, 4131, 4130, 1563, 1564, 1583, 1582
1968, 4112, 4113, 4132, 4131, 1564, 1565, 1584, 1583
1969, 4113, 4114, 4133, 4132, 1565, 1566, 1585, 1584
1970, 4114, 4115, 4134, 4133, 1566, 1567, 1586, 1585
1971, 4115, 4116, 4135, 4134, 1567, 1568, 1587, 1586
1972, 4116, 4117, 4136, 4135, 1568, 1569, 1588, 1587
1973, 4117, 4118, 4137, 4136, 1569, 1570, 1589, 1588
1974, 4118, 4119, 4138, 4137, 1570, 1571, 1590, 1589
1975, 4119, 4120, 4139, 4138, 1571, 1572, 1591, 1590
1976, 4120, 4121, 4140, 4139, 1572, 1573, 1592, 1591
1977, 4121, 4122, 4141, 4140, 1573, 1574, 1593, 1592
1978, 4122, 4123, 4142, 4141, 1574, 1575, 1594, 1593
1979, 4123, 4124, 4143, 4142, 1575, 1576, 1595, 1594
1980, 4124, 2062, 2063, 4143, 1576,  234,  235, 1595
1981, 2003, 4125, 4144, 2004,  267, 1577, 1596,  266
1982, 4125, 4126, 4145, 4144, 1577, 1578, 1597, 1596
1983, 4126, 4127, 4146, 4145, 1578, 1579, 1598, 1597
1984, 4127, 4128, 4147, 4146, 1579, 1580, 1599, 1598
1985, 4128, 4129, 4148, 4147, 1580, 1581, 1600, 1599
1986, 4129, 4130, 4149, 4148, 1581, 1582, 1601, 1600
1987, 4130, 4131, 4150, 4149, 1582, 1583, 1602, 1601
1988, 4131, 4132, 4151, 4150, 1583, 1584, 1603, 1602
1989, 4132, 4133, 4152, 4151, 1584, 1585, 1604, 1603
1990, 4133, 4134, 4153, 4152, 1585, 1586, 1605, 1604
1991, 4134, 4135, 4154, 4153, 1586, 1587, 1606, 1605
1992, 4135, 4136, 4155, 4154, 1587, 1588, 1607, 1606
1993, 4136, 4137, 4156, 4155, 1588, 1589, 1608, 1607
1994, 4137, 4138, 4157, 4156, 1589, 1590, 1609, 1608
1995, 4138, 4139, 4158, 4157, 1590, 1591, 1610, 1609
1996, 4139, 4140, 4159, 4158, 1591, 1592, 1611, 1610
1997, 4140, 4141, 4160, 4159, 1592, 1593, 1612, 1611
1998, 4141, 4142, 4161, 4160, 1593, 1594, 1613, 1612
1999, 4142, 4143, 4162, 4161, 1594, 1595, 1614, 1613
2000, 4143, 2063, 2064, 4162, 1595,  235,  236, 1614
2001, 2004, 4144, 4163, 2005,  266, 1596, 1615,  265
2002, 4144, 4145, 4164, 4163, 1596, 1597, 1616, 1615
2003, 4145, 4146, 4165, 4164, 1597, 1598, 1617, 1616
2004, 4146, 4147, 4166, 4165, 1598, 1599, 1618, 1617
2005, 4147, 4148, 4167, 4166, 1599, 1600, 1619, 1618
2006, 4148, 4149, 4168, 4167, 1600, 1601, 1620, 1619
2007, 4149, 4150, 4169, 4168, 1601, 1602, 1621, 1620
2008, 4150, 4151, 4170, 4169, 1602, 1603, 1622, 1621
2009, 4151, 4152, 4171, 4170, 1603, 1604, 1623, 1622
2010, 4152, 4153, 4172, 4171, 1604, 1605, 1624, 1623
2011, 4153, 4154, 4173, 4172, 1605, 1606, 1625, 1624
2012, 4154, 4155, 4174, 4173, 1606, 1607, 1626, 1625
2013, 4155, 4156, 4175, 4174, 1607, 1608, 1627, 1626
2014, 4156, 4157, 4176, 4175, 1608, 1609, 1628, 1627
2015, 4157, 4158, 4177, 4176, 1609, 1610, 1629, 1628
2016, 4158, 4159, 4178, 4177, 1610, 1611, 1630, 1629
2017, 4159, 4160, 4179, 4178, 1611, 1612, 1631, 1630
2018, 4160, 4161, 4180, 4179, 1612, 1613, 1632, 1631
2019, 4161, 4162, 4181, 4180, 1613, 1614, 1633, 1632
2020, 4162, 2064, 2065, 4181, 1614,  236,  237, 1633
2021, 2005, 4163, 4182, 2006,  265, 1615, 1634,  264
2022, 4163, 4164, 4183, 4182, 1615, 1616, 1635, 1634
2023, 4164, 4165, 4184, 4183, 1616, 1617, 1636, 1635
2024, 4165, 4166, 4185, 4184, 1617, 1618, 1637, 1636
2025, 4166, 4167, 4186, 4185, 1618, 1619, 1638, 1637
2026, 4167, 4168, 4187, 4186, 1619, 1620, 1639, 1638
2027, 4168, 4169, 4188, 4187, 1620, 1621, 1640, 1639
2028, 4169, 4170, 4189, 4188, 1621, 1622, 1641, 1640
2029, 4170, 4171, 4190, 4189, 1622, 1623, 1642, 1641
2030, 4171, 4172, 4191, 4190, 1623, 1624, 1643, 1642
2031, 4172, 4173, 4192, 4191, 1624, 1625, 1644, 1643
2032, 4173, 4174, 4193, 4192, 1625, 1626, 1645, 1644
2033, 4174, 4175, 4194, 4193, 1626, 1627, 1646, 1645
2034, 4175, 4176, 4195, 4194, 1627, 1628, 1647, 1646
2035, 4176, 4177, 4196, 4195, 1628, 1629, 1648, 1647
2036, 4177, 4178, 4197, 4196, 1629, 1630, 1649, 1648
2037, 4178, 4179, 4198, 4197, 1630, 1631, 1650, 1649
2038, 4179, 4180, 4199, 4198, 1631, 1632, 1651, 1650
2039, 4180, 4181, 4200, 4199, 1632, 1633, 1652, 1651
2040, 4181, 2065, 2066, 4200, 1633,  237,  238, 1652
2041, 2006, 4182, 4201, 2007,  264, 1634, 1653,  263
2042, 4182, 4183, 4202, 4201, 1634, 1635, 1654, 1653
2043, 4183, 4184, 4203, 4202, 1635, 1636, 1655, 1654
2044, 4184, 4185, 4204, 4203, 1636, 1637, 1656, 1655
2045, 4185, 4186, 4205, 4204, 1637, 1638, 1657, 1656
2046, 4186, 4187, 4206, 4205, 1638, 1639, 1658, 1657
2047, 4187, 4188, 4207, 4206, 1639, 1640, 1659, 1658
2048, 4188, 4189, 4208, 4207, 1640, 1641, 1660, 1659
2049, 4189, 4190, 4209, 4208, 1641, 1642, 1661, 1660
2050, 4190, 4191, 4210, 4209, 1642, 1643, 1662, 1661
2051, 4191, 4192, 4211, 4210, 1643, 1644, 1663, 1662
2052, 4192, 4193, 4212, 4211, 1644, 1645, 1664, 1663
2053, 4193, 4194, 4213, 4212, 1645, 1646, 1665, 1664
2054, 4194, 4195, 4214, 4213, 1646, 1647, 1666, 1665
2055, 4195, 4196, 4215, 4214, 1647, 1648, 1667, 1666
2056, 4196, 4197, 4216, 4215, 1648, 1649, 1668, 1667
2057, 4197, 4198, 4217, 4216, 1649, 1650, 1669, 1668
2058, 4198, 4199, 4218, 4217, 1650, 1651, 1670, 1669
2059, 4199, 4200, 4219, 4218, 1651, 1652, 1671, 1670
2060, 4200, 2066, 2067, 4219, 1652,  238,  239, 1671
2061, 2007, 4201, 4220, 2008,  263, 1653, 1672,  262
2062, 4201, 4202, 4221, 4220, 1653, 1654, 1673, 1672
2063, 4202, 4203, 4222, 4221, 1654, 1655, 1674, 1673
2064, 4203, 4204, 4223, 4222, 1655, 1656, 1675, 1674
2065, 4204, 4205, 4224, 4223, 1656, 1657, 1676, 1675
2066, 4205, 4206, 4225, 4224, 1657, 1658, 1677, 1676
2067, 4206, 4207, 4226, 4225, 1658, 1659, 1678, 1677
2068, 4207, 4208, 4227, 4226, 1659, 1660, 1679, 1678
2069, 4208, 4209, 4228, 4227, 1660, 1661, 1680, 1679
2070, 4209, 4210, 4229, 4228, 1661, 1662, 1681, 1680
2071, 4210, 4211, 4230, 4229, 1662, 1663, 1682, 1681
2072, 4211, 4212, 4231, 4230, 1663, 1664, 1683, 1682
2073, 4212, 4213, 4232, 4231, 1664, 1665, 1684, 1683
2074, 4213, 4214, 4233, 4232, 1665, 1666, 1685, 1684
2075, 4214, 4215, 4234, 4233, 1666, 1667, 1686, 1685
2076, 4215, 4216, 4235, 4234, 1667, 1668, 1687, 1686
2077, 4216, 4217, 4236, 4235, 1668, 1669, 1688, 1687
2078, 4217, 4218, 4237, 4236, 1669, 1670, 1689, 1688
2079, 4218, 4219, 4238, 4237, 1670, 1671, 1690, 1689
2080, 4219, 2067, 2068, 4238, 1671,  239,  240, 1690
2081, 2008, 4220, 4239, 2009,  262, 1672, 1691,  261
2082, 4220, 4221, 4240, 4239, 1672, 1673, 1692, 1691
2083, 4221, 4222, 4241, 4240, 1673, 1674, 1693, 1692
2084, 4222, 4223, 4242, 4241, 1674, 1675, 1694, 1693
2085, 4223, 4224, 4243, 4242, 1675, 1676, 1695, 1694
2086, 4224, 4225, 4244, 4243, 1676, 1677, 1696, 1695
2087, 4225, 4226, 4245, 4244, 1677, 1678, 1697, 1696
2088, 4226, 4227, 4246, 4245, 1678, 1679, 1698, 1697
2089, 4227, 4228, 4247, 4246, 1679, 1680, 1699, 1698
2090, 4228, 4229, 4248, 4247, 1680, 1681, 1700, 1699
2091, 4229, 4230, 4249, 4248, 1681, 1682, 1701, 1700
2092, 4230, 4231, 4250, 4249, 1682, 1683, 1702, 1701
2093, 4231, 4232, 4251, 4250, 1683, 1684, 1703, 1702
2094, 4232, 4233, 4252, 4251, 1684, 1685, 1704, 1703
2095, 4233, 4234, 4253, 4252, 1685, 1686, 1705, 1704
2096, 4234, 4235, 4254, 4253, 1686, 1687, 1706, 1705
2097, 4235, 4236, 4255, 4254, 1687, 1688, 1707, 1706
2098, 4236, 4237, 4256, 4255, 1688, 1689, 1708, 1707
2099, 4237, 4238, 4257, 4256, 1689, 1690, 1709, 1708
2100, 4238, 2068, 2069, 4257, 1690,  240,  241, 1709
2101, 2009, 4239, 2115,  325,  261, 1691,  260,   14
2102, 4239, 4240, 2116, 2115, 1691, 1692,  259,  260
2103, 4240, 4241, 2117, 2116, 1692, 1693,  258,  259
2104, 4241, 4242, 2118, 2117, 1693, 1694,  257,  258
2105, 4242, 4243, 2119, 2118, 1694, 1695,  256,  257
2106, 4243, 4244, 2120, 2119, 1695, 1696,  255,  256
2107, 4244, 4245, 2121, 2120, 1696, 1697,  254,  255
2108, 4245, 4246, 2122, 2121, 1697, 1698,  253,  254
2109, 4246, 4247, 2123, 2122, 1698, 1699,  252,  253
2110, 4247, 4248, 2124, 2123, 1699, 1700,  251,  252
2111, 4248, 4249, 2125, 2124, 1700, 1701,  250,  251
2112, 4249, 4250, 2126, 2125, 1701, 1702,  249,  250
2113, 4250, 4251, 2127, 2126, 1702, 1703,  248,  249
2114, 4251, 4252, 2128, 2127, 1703, 1704,  247,  248
2115, 4252, 4253, 2129, 2128, 1704, 1705,  246,  247
2116, 4253, 4254, 2130, 2129, 1705, 1706,  245,  246
2117, 4254, 4255, 2131, 2130, 1706, 1707,  244,  245
2118, 4255, 4256, 2132, 2131, 1707, 1708,  243,  244
2119, 4256, 4257, 2133, 2132, 1708, 1709,  242,  243
2120, 4257, 2069,  332, 2133, 1709,  241,   13,  242
2121,  224, 1405, 4258, 2010,  223, 1424, 3973, 1995
2122, 1405, 1404, 4259, 4258, 1424, 1423, 3974, 3973
2123, 1404, 1403, 4260, 4259, 1423, 1422, 3975, 3974
2124, 1403, 1402, 4261, 4260, 1422, 1421, 3976, 3975
2125, 1402, 1401, 4262, 4261, 1421, 1420, 3977, 3976
2126, 1401, 1400, 4263, 4262, 1420, 1419, 3978, 3977
2127, 1400, 1399, 4264, 4263, 1419, 1418, 3979, 3978
2128, 1399, 1398, 4265, 4264, 1418, 1417, 3980, 3979
2129, 1398, 1397, 4266, 4265, 1417, 1416, 3981, 3980
2130, 1397, 1396, 4267, 4266, 1416, 1415, 3982, 3981
2131, 1396, 1395, 4268, 4267, 1415, 1414, 3983, 3982
2132, 1395, 1394, 4269, 4268, 1414, 1413, 3984, 3983
2133, 1394, 1393, 4270, 4269, 1413, 1412, 3985, 3984
2134, 1393, 1392, 4271, 4270, 1412, 1411, 3986, 3985
2135, 1392, 1391, 4272, 4271, 1411, 1410, 3987, 3986
2136, 1391, 1390, 4273, 4272, 1410, 1409, 3988, 3987
2137, 1390, 1389, 4274, 4273, 1409, 1408, 3989, 3988
2138, 1389, 1388, 4275, 4274, 1408, 1407, 3990, 3989
2139, 1388, 1387, 4276, 4275, 1407, 1406, 3991, 3990
2140, 1387,  221, 2070, 4276, 1406,  222, 2055, 3991
2141, 2010, 4258, 4277, 2011, 1995, 3973, 3992, 1996
2142, 4258, 4259, 4278, 4277, 3973, 3974, 3993, 3992
2143, 4259, 4260, 4279, 4278, 3974, 3975, 3994, 3993
2144, 4260, 4261, 4280, 4279, 3975, 3976, 3995, 3994
2145, 4261, 4262, 4281, 4280, 3976, 3977, 3996, 3995
2146, 4262, 4263, 4282, 4281, 3977, 3978, 3997, 3996
2147, 4263, 4264, 4283, 4282, 3978, 3979, 3998, 3997
2148, 4264, 4265, 4284, 4283, 3979, 3980, 3999, 3998
2149, 4265, 4266, 4285, 4284, 3980, 3981, 4000, 3999
2150, 4266, 4267, 4286, 4285, 3981, 3982, 4001, 4000
2151, 4267, 4268, 4287, 4286, 3982, 3983, 4002, 4001
2152, 4268, 4269, 4288, 4287, 3983, 3984, 4003, 4002
2153, 4269, 4270, 4289, 4288, 3984, 3985, 4004, 4003
2154, 4270, 4271, 4290, 4289, 3985, 3986, 4005, 4004
2155, 4271, 4272, 4291, 4290, 3986, 3987, 4006, 4005
2156, 4272, 4273, 4292, 4291, 3987, 3988, 4007, 4006
2157, 4273, 4274, 4293, 4292, 3988, 3989, 4008, 4007
2158, 4274, 4275, 4294, 4293, 3989, 3990, 4009, 4008
2159, 4275, 4276, 4295, 4294, 3990, 3991, 4010, 4009
2160, 4276, 2070, 2071, 4295, 3991, 2055, 2056, 4010
2161, 2011, 4277, 4296, 2012, 1996, 3992, 4011, 1997
2162, 4277, 4278, 4297, 4296, 3992, 3993, 4012, 4011
2163, 4278, 4279, 4298, 4297, 3993, 3994, 4013, 4012
2164, 4279, 4280, 4299, 4298, 3994, 3995, 4014, 4013
2165, 4280, 4281, 4300, 4299, 3995, 3996, 4015, 4014
2166, 4281, 4282, 4301, 4300, 3996, 3997, 4016, 4015
2167, 4282, 4283, 4302, 4301, 3997, 3998, 4017, 4016
2168, 4283, 4284, 4303, 4302, 3998, 3999, 4018, 4017
2169, 4284, 4285, 4304, 4303, 3999, 4000, 4019, 4018
2170, 4285, 4286, 4305, 4304, 4000, 4001, 4020, 4019
2171, 4286, 4287, 4306, 4305, 4001, 4002, 4021, 4020
2172, 4287, 4288, 4307, 4306, 4002, 4003, 4022, 4021
2173, 4288, 4289, 4308, 4307, 4003, 4004, 4023, 4022
2174, 4289, 4290, 4309, 4308, 4004, 4005, 4024, 4023
2175, 4290, 4291, 4310, 4309, 4005, 4006, 4025, 4024
2176, 4291, 4292, 4311, 4310, 4006, 4007, 4026, 4025
2177, 4292, 4293, 4312, 4311, 4007, 4008, 4027, 4026
2178, 4293, 4294, 4313, 4312, 4008, 4009, 4028, 4027
2179, 4294, 4295, 4314, 4313, 4009, 4010, 4029, 4028
2180, 4295, 2071, 2072, 4314, 4010, 2056, 2057, 4029
2181, 2012, 4296, 4315, 2013, 1997, 4011, 4030, 1998
2182, 4296, 4297, 4316, 4315, 4011, 4012, 4031, 4030
2183, 4297, 4298, 4317, 4316, 4012, 4013, 4032, 4031
2184, 4298, 4299, 4318, 4317, 4013, 4014, 4033, 4032
2185, 4299, 4300, 4319, 4318, 4014, 4015, 4034, 4033
2186, 4300, 4301, 4320, 4319, 4015, 4016, 4035, 4034
2187, 4301, 4302, 4321, 4320, 4016, 4017, 4036, 4035
2188, 4302, 4303, 4322, 4321, 4017, 4018, 4037, 4036
2189, 4303, 4304, 4323, 4322, 4018, 4019, 4038, 4037
2190, 4304, 4305, 4324, 4323, 4019, 4020, 4039, 4038
2191, 4305, 4306, 4325, 4324, 4020, 4021, 4040, 4039
2192, 4306, 4307, 4326, 4325, 4021, 4022, 4041, 4040
2193, 4307, 4308, 4327, 4326, 4022, 4023, 4042, 4041
2194, 4308, 4309, 4328, 4327, 4023, 4024, 4043, 4042
2195, 4309, 4310, 4329, 4328, 4024, 4025, 4044, 4043
2196, 4310, 4311, 4330, 4329, 4025, 4026, 4045, 4044
2197, 4311, 4312, 4331, 4330, 4026, 4027, 4046, 4045
2198, 4312, 4313, 4332, 4331, 4027, 4028, 4047, 4046
2199, 4313, 4314, 4333, 4332, 4028, 4029, 4048, 4047
2200, 4314, 2072, 2073, 4333, 4029, 2057, 2058, 4048
2201, 2013, 4315, 4334, 2014, 1998, 4030, 4049, 1999
2202, 4315, 4316, 4335, 4334, 4030, 4031, 4050, 4049
2203, 4316, 4317, 4336, 4335, 4031, 4032, 4051, 4050
2204, 4317, 4318, 4337, 4336, 4032, 4033, 4052, 4051
2205, 4318, 4319, 4338, 4337, 4033, 4034, 4053, 4052
2206, 4319, 4320, 4339, 4338, 4034, 4035, 4054, 4053
2207, 4320, 4321, 4340, 4339, 4035, 4036, 4055, 4054
2208, 4321, 4322, 4341, 4340, 4036, 4037, 4056, 4055
2209, 4322, 4323, 4342, 4341, 4037, 4038, 4057, 4056
2210, 4323, 4324, 4343, 4342, 4038, 4039, 4058, 4057
2211, 4324, 4325, 4344, 4343, 4039, 4040, 4059, 4058
2212, 4325, 4326, 4345, 4344, 4040, 4041, 4060, 4059
2213, 4326, 4327, 4346, 4345, 4041, 4042, 4061, 4060
2214, 4327, 4328, 4347, 4346, 4042, 4043, 4062, 4061
2215, 4328, 4329, 4348, 4347, 4043, 4044, 4063, 4062
2216, 4329, 4330, 4349, 4348, 4044, 4045, 4064, 4063
2217, 4330, 4331, 4350, 4349, 4045, 4046, 4065, 4064
2218, 4331, 4332, 4351, 4350, 4046, 4047, 4066, 4065
2219, 4332, 4333, 4352, 4351, 4047, 4048, 4067, 4066
2220, 4333, 2073, 2074, 4352, 4048, 2058, 2059, 4067
2221, 2014, 4334, 4353, 2015, 1999, 4049, 4068, 2000
2222, 4334, 4335, 4354, 4353, 4049, 4050, 4069, 4068
2223, 4335, 4336, 4355, 4354, 4050, 4051, 4070, 4069
2224, 4336, 4337, 4356, 4355, 4051, 4052, 4071, 4070
2225, 4337, 4338, 4357, 4356, 4052, 4053, 4072, 4071
2226, 4338, 4339, 4358, 4357, 4053, 4054, 4073, 4072
2227, 4339, 4340, 4359, 4358, 4054, 4055, 4074, 4073
2228, 4340, 4341, 4360, 4359, 4055, 4056, 4075, 4074
2229, 4341, 4342, 4361, 4360, 4056, 4057, 4076, 4075
2230, 4342, 4343, 4362, 4361, 4057, 4058, 4077, 4076
2231, 4343, 4344, 4363, 4362, 4058, 4059, 4078, 4077
2232, 4344, 4345, 4364, 4363, 4059, 4060, 4079, 4078
2233, 4345, 4346, 4365, 4364, 4060, 4061, 4080, 4079
2234, 4346, 4347, 4366, 4365, 4061, 4062, 4081, 4080
2235, 4347, 4348, 4367, 4366, 4062, 4063, 4082, 4081
2236, 4348, 4349, 4368, 4367, 4063, 4064, 4083, 4082
2237, 4349, 4350, 4369, 4368, 4064, 4065, 4084, 4083
2238, 4350, 4351, 4370, 4369, 4065, 4066, 4085, 4084
2239, 4351, 4352, 4371, 4370, 4066, 4067, 4086, 4085
2240, 4352, 2074, 2075, 4371, 4067, 2059, 2060, 4086
2241, 2015, 4353, 4372, 2016, 2000, 4068, 4087, 2001
2242, 4353, 4354, 4373, 4372, 4068, 4069, 4088, 4087
2243, 4354, 4355, 4374, 4373, 4069, 4070, 4089, 4088
2244, 4355, 4356, 4375, 4374, 4070, 4071, 4090, 4089
2245, 4356, 4357, 4376, 4375, 4071, 4072, 4091, 4090
2246, 4357, 4358, 4377, 4376, 4072, 4073, 4092, 4091
2247, 4358, 4359, 4378, 4377, 4073, 4074, 4093, 4092
2248, 4359, 4360, 4379, 4378, 4074, 4075, 4094, 4093
2249, 4360, 4361, 4380, 4379, 4075, 4076, 4095, 4094
2250, 4361, 4362, 4381, 4380, 4076, 4077, 4096, 4095
2251, 4362, 4363, 4382, 4381, 4077, 4078, 4097, 4096
2252, 4363, 4364, 4383, 4382, 4078, 4079, 4098, 4097
2253, 4364, 4365, 4384, 4383, 4079, 4080, 4099, 4098
2254, 4365, 4366, 4385, 4384, 4080, 4081, 4100, 4099
2255, 4366, 4367, 4386, 4385, 4081, 4082, 4101, 4100
2256, 4367, 4368, 4387, 4386, 4082, 4083, 4102, 4101
2257, 4368, 4369, 4388, 4387, 4083, 4084, 4103, 4102
2258, 4369, 4370, 4389, 4388, 4084, 4085, 4104, 4103
2259, 4370, 4371, 4390, 4389, 4085, 4086, 4105, 4104
2260, 4371, 2075, 2076, 4390, 4086, 2060, 2061, 4105
2261, 2016, 4372, 4391, 2017, 2001, 4087, 4106, 2002
2262, 4372, 4373, 4392, 4391, 4087, 4088, 4107, 4106
2263, 4373, 4374, 4393, 4392, 4088, 4089, 4108, 4107
2264, 4374, 4375, 4394, 4393, 4089, 4090, 4109, 4108
2265, 4375, 4376, 4395, 4394, 4090, 4091, 4110, 4109
2266, 4376, 4377, 4396, 4395, 4091, 4092, 4111, 4110
2267, 4377, 4378, 4397, 4396, 4092, 4093, 4112, 4111
2268, 4378, 4379, 4398, 4397, 4093, 4094, 4113, 4112
2269, 4379, 4380, 4399, 4398, 4094, 4095, 4114, 4113
2270, 4380, 4381, 4400, 4399, 4095, 4096, 4115, 4114
2271, 4381, 4382, 4401, 4400, 4096, 4097, 4116, 4115
2272, 4382, 4383, 4402, 4401, 4097, 4098, 4117, 4116
2273, 4383, 4384, 4403, 4402, 4098, 4099, 4118, 4117
2274, 4384, 4385, 4404, 4403, 4099, 4100, 4119, 4118
2275, 4385, 4386, 4405, 4404, 4100, 4101, 4120, 4119
2276, 4386, 4387, 4406, 4405, 4101, 4102, 4121, 4120
2277, 4387, 4388, 4407, 4406, 4102, 4103, 4122, 4121
2278, 4388, 4389, 4408, 4407, 4103, 4104, 4123, 4122
2279, 4389, 4390, 4409, 4408, 4104, 4105, 4124, 4123
2280, 4390, 2076, 2077, 4409, 4105, 2061, 2062, 4124
2281, 2017, 4391, 4410, 2018, 2002, 4106, 4125, 2003
2282, 4391, 4392, 4411, 4410, 4106, 4107, 4126, 4125
2283, 4392, 4393, 4412, 4411, 4107, 4108, 4127, 4126
2284, 4393, 4394, 4413, 4412, 4108, 4109, 4128, 4127
2285, 4394, 4395, 4414, 4413, 4109, 4110, 4129, 4128
2286, 4395, 4396, 4415, 4414, 4110, 4111, 4130, 4129
2287, 4396, 4397, 4416, 4415, 4111, 4112, 4131, 4130
2288, 4397, 4398, 4417, 4416, 4112, 4113, 4132, 4131
2289, 4398, 4399, 4418, 4417, 4113, 4114, 4133, 4132
2290, 4399, 4400, 4419, 4418, 4114, 4115, 4134, 4133
2291, 4400, 4401, 4420, 4419, 4115, 4116, 4135, 4134
2292, 4401, 4402, 4421, 4420, 4116, 4117, 4136, 4135
2293, 4402, 4403, 4422, 4421, 4117, 4118, 4137, 4136
2294, 4403, 4404, 4423, 4422, 4118, 4119, 4138, 4137
2295, 4404, 4405, 4424, 4423, 4119, 4120, 4139, 4138
2296, 4405, 4406, 4425, 4424, 4120, 4121, 4140, 4139
2297, 4406, 4407, 4426, 4425, 4121, 4122, 4141, 4140
2298, 4407, 4408, 4427, 4426, 4122, 4123, 4142, 4141
2299, 4408, 4409, 4428, 4427, 4123, 4124, 4143, 4142
2300, 4409, 2077, 2078, 4428, 4124, 2062, 2063, 4143
2301, 2018, 4410, 4429, 2019, 2003, 4125, 4144, 2004
2302, 4410, 4411, 4430, 4429, 4125, 4126, 4145, 4144
2303, 4411, 4412, 4431, 4430, 4126, 4127, 4146, 4145
2304, 4412, 4413, 4432, 4431, 4127, 4128, 4147, 4146
2305, 4413, 4414, 4433, 4432, 4128, 4129, 4148, 4147
2306, 4414, 4415, 4434, 4433, 4129, 4130, 4149, 4148
2307, 4415, 4416, 4435, 4434, 4130, 4131, 4150, 4149
2308, 4416, 4417, 4436, 4435, 4131, 4132, 4151, 4150
2309, 4417, 4418, 4437, 4436, 4132, 4133, 4152, 4151
2310, 4418, 4419, 4438, 4437, 4133, 4134, 4153, 4152
2311, 4419, 4420, 4439, 4438, 4134, 4135, 4154, 4153
2312, 4420, 4421, 4440, 4439, 4135, 4136, 4155, 4154
2313, 4421, 4422, 4441, 4440, 4136, 4137, 4156, 4155
2314, 4422, 4423, 4442, 4441, 4137, 4138, 4157, 4156
2315, 4423, 4424, 4443, 4442, 4138, 4139, 4158, 4157
2316, 4424, 4425, 4444, 4443, 4139, 4140, 4159, 4158
2317, 4425, 4426, 4445, 4444, 4140, 4141, 4160, 4159
2318, 4426, 4427, 4446, 4445, 4141, 4142, 4161, 4160
2319, 4427, 4428, 4447, 4446, 4142, 4143, 4162, 4161
2320, 4428, 2078, 2079, 4447, 4143, 2063, 2064, 4162
2321, 2019, 4429, 4448, 2020, 2004, 4144, 4163, 2005
2322, 4429, 4430, 4449, 4448, 4144, 4145, 4164, 4163
2323, 4430, 4431, 4450, 4449, 4145, 4146, 4165, 4164
2324, 4431, 4432, 4451, 4450, 4146, 4147, 4166, 4165
2325, 4432, 4433, 4452, 4451, 4147, 4148, 4167, 4166
2326, 4433, 4434, 4453, 4452, 4148, 4149, 4168, 4167
2327, 4434, 4435, 4454, 4453, 4149, 4150, 4169, 4168
2328, 4435, 4436, 4455, 4454, 4150, 4151, 4170, 4169
2329, 4436, 4437, 4456, 4455, 4151, 4152, 4171, 4170
2330, 4437, 4438, 4457, 4456, 4152, 4153, 4172, 4171
2331, 4438, 4439, 4458, 4457, 4153, 4154, 4173, 4172
2332, 4439, 4440, 4459, 4458, 4154, 4155, 4174, 4173
2333, 4440, 4441, 4460, 4459, 4155, 4156, 4175, 4174
2334, 4441, 4442, 4461, 4460, 4156, 4157, 4176, 4175
2335, 4442, 4443, 4462, 4461, 4157, 4158, 4177, 4176
2336, 4443, 4444, 4463, 4462, 4158, 4159, 4178, 4177
2337, 4444, 4445, 4464, 4463, 4159, 4160, 4179, 4178
2338, 4445, 4446, 4465, 4464, 4160, 4161, 4180, 4179
2339, 4446, 4447, 4466, 4465, 4161, 4162, 4181, 4180
2340, 4447, 2079, 2080, 4466, 4162, 2064, 2065, 4181
2341, 2020, 4448, 4467, 2021, 2005, 4163, 4182, 2006
2342, 4448, 4449, 4468, 4467, 4163, 4164, 4183, 4182
2343, 4449, 4450, 4469, 4468, 4164, 4165, 4184, 4183
2344, 4450, 4451, 4470, 4469, 4165, 4166, 4185, 4184
2345, 4451, 4452, 4471, 4470, 4166, 4167, 4186, 4185
2346, 4452, 4453, 4472, 4471, 4167, 4168, 4187, 4186
2347, 4453, 4454, 4473, 4472, 4168, 4169, 4188, 4187
2348, 4454, 4455, 4474, 4473, 4169, 4170, 4189, 4188
2349, 4455, 4456, 4475, 4474, 4170, 4171, 4190, 4189
2350, 4456, 4457, 4476, 4475, 4171, 4172, 4191, 4190
2351, 4457, 4458, 4477, 4476, 4172, 4173, 4192, 4191
2352, 4458, 4459, 4478, 4477, 4173, 4174, 4193, 4192
2353, 4459, 4460, 4479, 4478, 4174, 4175, 4194, 4193
2354, 4460, 4461, 4480, 4479, 4175, 4176, 4195, 4194
2355, 4461, 4462, 4481, 4480, 4176, 4177, 4196, 4195
2356, 4462, 4463, 4482, 4481, 4177, 4178, 4197, 4196
2357, 4463, 4464, 4483, 4482, 4178, 4179, 4198, 4197
2358, 4464, 4465, 4484, 4483, 4179, 4180, 4199, 4198
2359, 4465, 4466, 4485, 4484, 4180, 4181, 4200, 4199
2360, 4466, 2080, 2081, 4485, 4181, 2065, 2066, 4200
2361, 2021, 4467, 4486, 2022, 2006, 4182, 4201, 2007
2362, 4467, 4468, 4487, 4486, 4182, 4183, 4202, 4201
2363, 4468, 4469, 4488, 4487, 4183, 4184, 4203, 4202
2364, 4469, 4470, 4489, 4488, 4184, 4185, 4204, 4203
2365, 4470, 4471, 4490, 4489, 4185, 4186, 4205, 4204
2366, 4471, 4472, 4491, 4490, 4186, 4187, 4206, 4205
2367, 4472, 4473, 4492, 4491, 4187, 4188, 4207, 4206
2368, 4473, 4474, 4493, 4492, 4188, 4189, 4208, 4207
2369, 4474, 4475, 4494, 4493, 4189, 4190, 4209, 4208
2370, 4475, 4476, 4495, 4494, 4190, 4191, 4210, 4209
2371, 4476, 4477, 4496, 4495, 4191, 4192, 4211, 4210
2372, 4477, 4478, 4497, 4496, 4192, 4193, 4212, 4211
2373, 4478, 4479, 4498, 4497, 4193, 4194, 4213, 4212
2374, 4479, 4480, 4499, 4498, 4194, 4195, 4214, 4213
2375, 4480, 4481, 4500, 4499, 4195, 4196, 4215, 4214
2376, 4481, 4482, 4501, 4500, 4196, 4197, 4216, 4215
2377, 4482, 4483, 4502, 4501, 4197, 4198, 4217, 4216
2378, 4483, 4484, 4503, 4502, 4198, 4199, 4218, 4217
2379, 4484, 4485, 4504, 4503, 4199, 4200, 4219, 4218
2380, 4485, 2081, 2082, 4504, 4200, 2066, 2067, 4219
2381, 2022, 4486, 4505, 2023, 2007, 4201, 4220, 2008
2382, 4486, 4487, 4506, 4505, 4201, 4202, 4221, 4220
2383, 4487, 4488, 4507, 4506, 4202, 4203, 4222, 4221
2384, 4488, 4489, 4508, 4507, 4203, 4204, 4223, 4222
2385, 4489, 4490, 4509, 4508, 4204, 4205, 4224, 4223
2386, 4490, 4491, 4510, 4509, 4205, 4206, 4225, 4224
2387, 4491, 4492, 4511, 4510, 4206, 4207, 4226, 4225
2388, 4492, 4493, 4512, 4511, 4207, 4208, 4227, 4226
2389, 4493, 4494, 4513, 4512, 4208, 4209, 4228, 4227
2390, 4494, 4495, 4514, 4513, 4209, 4210, 4229, 4228
2391, 4495, 4496, 4515, 4514, 4210, 4211, 4230, 4229
2392, 4496, 4497, 4516, 4515, 4211, 4212, 4231, 4230
2393, 4497, 4498, 4517, 4516, 4212, 4213, 4232, 4231
2394, 4498, 4499, 4518, 4517, 4213, 4214, 4233, 4232
2395, 4499, 4500, 4519, 4518, 4214, 4215, 4234, 4233
2396, 4500, 4501, 4520, 4519, 4215, 4216, 4235, 4234
2397, 4501, 4502, 4521, 4520, 4216, 4217, 4236, 4235
2398, 4502, 4503, 4522, 4521, 4217, 4218, 4237, 4236
2399, 4503, 4504, 4523, 4522, 4218, 4219, 4238, 4237
2400, 4504, 2082, 2083, 4523, 4219, 2067, 2068, 4238
2401, 2023, 4505, 4524, 2024, 2008, 4220, 4239, 2009
2402, 4505, 4506, 4525, 4524, 4220, 4221, 4240, 4239
2403, 4506, 4507, 4526, 4525, 4221, 4222, 4241, 4240
2404, 4507, 4508, 4527, 4526, 4222, 4223, 4242, 4241
2405, 4508, 4509, 4528, 4527, 4223, 4224, 4243, 4242
2406, 4509, 4510, 4529, 4528, 4224, 4225, 4244, 4243
2407, 4510, 4511, 4530, 4529, 4225, 4226, 4245, 4244
2408, 4511, 4512, 4531, 4530, 4226, 4227, 4246, 4245
2409, 4512, 4513, 4532, 4531, 4227, 4228, 4247, 4246
2410, 4513, 4514, 4533, 4532, 4228, 4229, 4248, 4247
2411, 4514, 4515, 4534, 4533, 4229, 4230, 4249, 4248
2412, 4515, 4516, 4535, 4534, 4230, 4231, 4250, 4249
2413, 4516, 4517, 4536, 4535, 4231, 4232, 4251, 4250
2414, 4517, 4518, 4537, 4536, 4232, 4233, 4252, 4251
2415, 4518, 4519, 4538, 4537, 4233, 4234, 4253, 4252
2416, 4519, 4520, 4539, 4538, 4234, 4235, 4254, 4253
2417, 4520, 4521, 4540, 4539, 4235, 4236, 4255, 4254
2418, 4521, 4522, 4541, 4540, 4236, 4237, 4256, 4255
2419, 4522, 4523, 4542, 4541, 4237, 4238, 4257, 4256
2420, 4523, 2083, 2084, 4542, 4238, 2068, 2069, 4257
2421, 2024, 4524, 2134,  326, 2009, 4239, 2115,  325
2422, 4524, 4525, 2135, 2134, 4239, 4240, 2116, 2115
2423, 4525, 4526, 2136, 2135, 4240, 4241, 2117, 2116
2424, 4526, 4527, 2137, 2136, 4241, 4242, 2118, 2117
2425, 4527, 4528, 2138, 2137, 4242, 4243, 2119, 2118
2426, 4528, 4529, 2139, 2138, 4243, 4244, 2120, 2119
2427, 4529, 4530, 2140, 2139, 4244, 4245, 2121, 2120
2428, 4530, 4531, 2141, 2140, 4245, 4246, 2122, 2121
2429, 4531, 4532, 2142, 2141, 4246, 4247, 2123, 2122
2430, 4532, 4533, 2143, 2142, 4247, 4248, 2124, 2123
2431, 4533, 4534, 2144, 2143, 4248, 4249, 2125, 2124
2432, 4534, 4535, 2145, 2144, 4249, 4250, 2126, 2125
2433, 4535, 4536, 2146, 2145, 4250, 4251, 2127, 2126
2434, 4536, 4537, 2147, 2146, 4251, 4252, 2128, 2127
2435, 4537, 4538, 2148, 2147, 4252, 4253, 2129, 2128
2436, 4538, 4539, 2149, 2148, 4253, 4254, 2130, 2129
2437, 4539, 4540, 2150, 2149, 4254, 4255, 2131, 2130
2438, 4540, 4541, 2151, 2150, 4255, 4256, 2132, 2131
2439, 4541, 4542, 2152, 2151, 4256, 4257, 2133, 2132
2440, 4542, 2084,  331, 2152, 4257, 2069,  332, 2133
2441,  225, 1386, 4543, 2025,  224, 1405, 4258, 2010
2442, 1386, 1385, 4544, 4543, 1405, 1404, 4259, 4258
2443, 1385, 1384, 4545, 4544, 1404, 1403, 4260, 4259
2444, 1384, 1383, 4546, 4545, 1403, 1402, 4261, 4260
2445, 1383, 1382, 4547, 4546, 1402, 1401, 4262, 4261
2446, 1382, 1381, 4548, 4547, 1401, 1400, 4263, 4262
2447, 1381, 1380, 4549, 4548, 1400, 1399, 4264, 4263
2448, 1380, 1379, 4550, 4549, 1399, 1398, 4265, 4264
2449, 1379, 1378, 4551, 4550, 1398, 1397, 4266, 4265
2450, 1378, 1377, 4552, 4551, 1397, 1396, 4267, 4266
2451, 1377, 1376, 4553, 4552, 1396, 1395, 4268, 4267
2452, 1376, 1375, 4554, 4553, 1395, 1394, 4269, 4268
2453, 1375, 1374, 4555, 4554, 1394, 1393, 4270, 4269
2454, 1374, 1373, 4556, 4555, 1393, 1392, 4271, 4270
2455, 1373, 1372, 4557, 4556, 1392, 1391, 4272, 4271
2456, 1372, 1371, 4558, 4557, 1391, 1390, 4273, 4272
2457, 1371, 1370, 4559, 4558, 1390, 1389, 4274, 4273
2458, 1370, 1369, 4560, 4559, 1389, 1388, 4275, 4274
2459, 1369, 1368, 4561, 4560, 1388, 1387, 4276, 4275
2460, 1368,  220, 2085, 4561, 1387,  221, 2070, 4276
2461, 2025, 4543, 4562, 2026, 2010, 4258, 4277, 2011
2462, 4543, 4544, 4563, 4562, 4258, 4259, 4278, 4277
2463, 4544, 4545, 4564, 4563, 4259, 4260, 4279, 4278
2464, 4545, 4546, 4565, 4564, 4260, 4261, 4280, 4279
2465, 4546, 4547, 4566, 4565, 4261, 4262, 4281, 4280
2466, 4547, 4548, 4567, 4566, 4262, 4263, 4282, 4281
2467, 4548, 4549, 4568, 4567, 4263, 4264, 4283, 4282
2468, 4549, 4550, 4569, 4568, 4264, 4265, 4284, 4283
2469, 4550, 4551, 4570, 4569, 4265, 4266, 4285, 4284
2470, 4551, 4552, 4571, 4570, 4266, 4267, 4286, 4285
2471, 4552, 4553, 4572, 4571, 4267, 4268, 4287, 4286
2472, 4553, 4554, 4573, 4572, 4268, 4269, 4288, 4287
2473, 4554, 4555, 4574, 4573, 4269, 4270, 4289, 4288
2474, 4555, 4556, 4575, 4574, 4270, 4271, 4290, 4289
2475, 4556, 4557, 4576, 4575, 4271, 4272, 4291, 4290
2476, 4557, 4558, 4577, 4576, 4272, 4273, 4292, 4291
2477, 4558, 4559, 4578, 4577, 4273, 4274, 4293, 4292
2478, 4559, 4560, 4579, 4578, 4274, 4275, 4294, 4293
2479, 4560, 4561, 4580, 4579, 4275, 4276, 4295, 4294
2480, 4561, 2085, 2086, 4580, 4276, 2070, 2071, 4295
2481, 2026, 4562, 4581, 2027, 2011, 4277, 4296, 2012
2482, 4562, 4563, 4582, 4581, 4277, 4278, 4297, 4296
2483, 4563, 4564, 4583, 4582, 4278, 4279, 4298, 4297
2484, 4564, 4565, 4584, 4583, 4279, 4280, 4299, 4298
2485, 4565, 4566, 4585, 4584, 4280, 4281, 4300, 4299
2486, 4566, 4567, 4586, 4585, 4281, 4282, 4301, 4300
2487, 4567, 4568, 4587, 4586, 4282, 4283, 4302, 4301
2488, 4568, 4569, 4588, 4587, 4283, 4284, 4303, 4302
2489, 4569, 4570, 4589, 4588, 4284, 4285, 4304, 4303
2490, 4570, 4571, 4590, 4589, 4285, 4286, 4305, 4304
2491, 4571, 4572, 4591, 4590, 4286, 4287, 4306, 4305
2492, 4572, 4573, 4592, 4591, 4287, 4288, 4307, 4306
2493, 4573, 4574, 4593, 4592, 4288, 4289, 4308, 4307
2494, 4574, 4575, 4594, 4593, 4289, 4290, 4309, 4308
2495, 4575, 4576, 4595, 4594, 4290, 4291, 4310, 4309
2496, 4576, 4577, 4596, 4595, 4291, 4292, 4311, 4310
2497, 4577, 4578, 4597, 4596, 4292, 4293, 4312, 4311
2498, 4578, 4579, 4598, 4597, 4293, 4294, 4313, 4312
2499, 4579, 4580, 4599, 4598, 4294, 4295, 4314, 4313
2500, 4580, 2086, 2087, 4599, 4295, 2071, 2072, 4314
2501, 2027, 4581, 4600, 2028, 2012, 4296, 4315, 2013
2502, 4581, 4582, 4601, 4600, 4296, 4297, 4316, 4315
2503, 4582, 4583, 4602, 4601, 4297, 4298, 4317, 4316
2504, 4583, 4584, 4603, 4602, 4298, 4299, 4318, 4317
2505, 4584, 4585, 4604, 4603, 4299, 4300, 4319, 4318
2506, 4585, 4586, 4605, 4604, 4300, 4301, 4320, 4319
2507, 4586, 4587, 4606, 4605, 4301, 4302, 4321, 4320
2508, 4587, 4588, 4607, 4606, 4302, 4303, 4322, 4321
2509, 4588, 4589, 4608, 4607, 4303, 4304, 4323, 4322
2510, 4589, 4590, 4609, 4608, 4304, 4305, 4324, 4323
2511, 4590, 4591, 4610, 4609, 4305, 4306, 4325, 4324
2512, 4591, 4592, 4611, 4610, 4306, 4307, 4326, 4325
2513, 4592, 4593, 4612, 4611, 4307, 4308, 4327, 4326
2514, 4593, 4594, 4613, 4612, 4308, 4309, 4328, 4327
2515, 4594, 4595, 4614, 4613, 4309, 4310, 4329, 4328
2516, 4595, 4596, 4615, 4614, 4310, 4311, 4330, 4329
2517, 4596, 4597, 4616, 4615, 4311, 4312, 4331, 4330
2518, 4597, 4598, 4617, 4616, 4312, 4313, 4332, 4331
2519, 4598, 4599, 4618, 4617, 4313, 4314, 4333, 4332
2520, 4599, 2087, 2088, 4618, 4314, 2072, 2073, 4333
2521, 2028, 4600, 4619, 2029, 2013, 4315, 4334, 2014
2522, 4600, 4601, 4620, 4619, 4315, 4316, 4335, 4334
2523, 4601, 4602, 4621, 4620, 4316, 4317, 4336, 4335
2524, 4602, 4603, 4622, 4621, 4317, 4318, 4337, 4336
2525, 4603, 4604, 4623, 4622, 4318, 4319, 4338, 4337
2526, 4604, 4605, 4624, 4623, 4319, 4320, 4339, 4338
2527, 4605, 4606, 4625, 4624, 4320, 4321, 4340, 4339
2528, 4606, 4607, 4626, 4625, 4321, 4322, 4341, 4340
2529, 4607, 4608, 4627, 4626, 4322, 4323, 4342, 4341
2530, 4608, 4609, 4628, 4627, 4323, 4324, 4343, 4342
2531, 4609, 4610, 4629, 4628, 4324, 4325, 4344, 4343
2532, 4610, 4611, 4630, 4629, 4325, 4326, 4345, 4344
2533, 4611, 4612, 4631, 4630, 4326, 4327, 4346, 4345
2534, 4612, 4613, 4632, 4631, 4327, 4328, 4347, 4346
2535, 4613, 4614, 4633, 4632, 4328, 4329, 4348, 4347
2536, 4614, 4615, 4634, 4633, 4329, 4330, 4349, 4348
2537, 4615, 4616, 4635, 4634, 4330, 4331, 4350, 4349
2538, 4616, 4617, 4636, 4635, 4331, 4332, 4351, 4350
2539, 4617, 4618, 4637, 4636, 4332, 4333, 4352, 4351
2540, 4618, 2088, 2089, 4637, 4333, 2073, 2074, 4352
2541, 2029, 4619, 4638, 2030, 2014, 4334, 4353, 2015
2542, 4619, 4620, 4639, 4638, 4334, 4335, 4354, 4353
2543, 4620, 4621, 4640, 4639, 4335, 4336, 4355, 4354
2544, 4621, 4622, 4641, 4640, 4336, 4337, 4356, 4355
2545, 4622, 4623, 4642, 4641, 4337, 4338, 4357, 4356
2546, 4623, 4624, 4643, 4642, 4338, 4339, 4358, 4357
2547, 4624, 4625, 4644, 4643, 4339, 4340, 4359, 4358
2548, 4625, 4626, 4645, 4644, 4340, 4341, 4360, 4359
2549, 4626, 4627, 4646, 4645, 4341, 4342, 4361, 4360
2550, 4627, 4628, 4647, 4646, 4342, 4343, 4362, 4361
2551, 4628, 4629, 4648, 4647, 4343, 4344, 4363, 4362
2552, 4629, 4630, 4649, 4648, 4344, 4345, 4364, 4363
2553, 4630, 4631, 4650, 4649, 4345, 4346, 4365, 4364
2554, 4631, 4632, 4651, 4650, 4346, 4347, 4366, 4365
2555, 4632, 4633, 4652, 4651, 4347, 4348, 4367, 4366
2556, 4633, 4634, 4653, 4652, 4348, 4349, 4368, 4367
2557, 4634, 4635, 4654, 4653, 4349, 4350, 4369, 4368
2558, 4635, 4636, 4655, 4654, 4350, 4351, 4370, 4369
2559, 4636, 4637, 4656, 4655, 4351, 4352, 4371, 4370
2560, 4637, 2089, 2090, 4656, 4352, 2074, 2075, 4371
2561, 2030, 4638, 4657, 2031, 2015, 4353, 4372, 2016
2562, 4638, 4639, 4658, 4657, 4353, 4354, 4373, 4372
2563, 4639, 4640, 4659, 4658, 4354, 4355, 4374, 4373
2564, 4640, 4641, 4660, 4659, 4355, 4356, 4375, 4374
2565, 4641, 4642, 4661, 4660, 4356, 4357, 4376, 4375
2566, 4642, 4643, 4662, 4661, 4357, 4358, 4377, 4376
2567, 4643, 4644, 4663, 4662, 4358, 4359, 4378, 4377
2568, 4644, 4645, 4664, 4663, 4359, 4360, 4379, 4378
2569, 4645, 4646, 4665, 4664, 4360, 4361, 4380, 4379
2570, 4646, 4647, 4666, 4665, 4361, 4362, 4381, 4380
2571, 4647, 4648, 4667, 4666, 4362, 4363, 4382, 4381
2572, 4648, 4649, 4668, 4667, 4363, 4364, 4383, 4382
2573, 4649, 4650, 4669, 4668, 4364, 4365, 4384, 4383
2574, 4650, 4651, 4670, 4669, 4365, 4366, 4385, 4384
2575, 4651, 4652, 4671, 4670, 4366, 4367, 4386, 4385
2576, 4652, 4653, 4672, 4671, 4367, 4368, 4387, 4386
2577, 4653, 4654, 4673, 4672, 4368, 4369, 4388, 4387
2578, 4654, 4655, 4674, 4673, 4369, 4370, 4389, 4388
2579, 4655, 4656, 4675, 4674, 4370, 4371, 4390, 4389
2580, 4656, 2090, 2091, 4675, 4371, 2075, 2076, 4390
2581, 2031, 4657, 4676, 2032, 2016, 4372, 4391, 2017
2582, 4657, 4658, 4677, 4676, 4372, 4373, 4392, 4391
2583, 4658, 4659, 4678, 4677, 4373, 4374, 4393, 4392
2584, 4659, 4660, 4679, 4678, 4374, 4375, 4394, 4393
2585, 4660, 4661, 4680, 4679, 4375, 4376, 4395, 4394
2586, 4661, 4662, 4681, 4680, 4376, 4377, 4396, 4395
2587, 4662, 4663, 4682, 4681, 4377, 4378, 4397, 4396
2588, 4663, 4664, 4683, 4682, 4378, 4379, 4398, 4397
2589, 4664, 4665, 4684, 4683, 4379, 4380, 4399, 4398
2590, 4665, 4666, 4685, 4684, 4380, 4381, 4400, 4399
2591, 4666, 4667, 4686, 4685, 4381, 4382, 4401, 4400
2592, 4667, 4668, 4687, 4686, 4382, 4383, 4402, 4401
2593, 4668, 4669, 4688, 4687, 4383, 4384, 4403, 4402
2594, 4669, 4670, 4689, 4688, 4384, 4385, 4404, 4403
2595, 4670, 4671, 4690, 4689, 4385, 4386, 4405, 4404
2596, 4671, 4672, 4691, 4690, 4386, 4387, 4406, 4405
2597, 4672, 4673, 4692, 4691, 4387, 4388, 4407, 4406
2598, 4673, 4674, 4693, 4692, 4388, 4389, 4408, 4407
2599, 4674, 4675, 4694, 4693, 4389, 4390, 4409, 4408
2600, 4675, 2091, 2092, 4694, 4390, 2076, 2077, 4409
2601, 2032, 4676, 4695, 2033, 2017, 4391, 4410, 2018
2602, 4676, 4677, 4696, 4695, 4391, 4392, 4411, 4410
2603, 4677, 4678, 4697, 4696, 4392, 4393, 4412, 4411
2604, 4678, 4679, 4698, 4697, 4393, 4394, 4413, 4412
2605, 4679, 4680, 4699, 4698, 4394, 4395, 4414, 4413
2606, 4680, 4681, 4700, 4699, 4395, 4396, 4415, 4414
2607, 4681, 4682, 4701, 4700, 4396, 4397, 4416, 4415
2608, 4682, 4683, 4702, 4701, 4397, 4398, 4417, 4416
2609, 4683, 4684, 4703, 4702, 4398, 4399, 4418, 4417
2610, 4684, 4685, 4704, 4703, 4399, 4400, 4419, 4418
2611, 4685, 4686, 4705, 4704, 4400, 4401, 4420, 4419
2612, 4686, 4687, 4706, 4705, 4401, 4402, 4421, 4420
2613, 4687, 4688, 4707, 4706, 4402, 4403, 4422, 4421
2614, 4688, 4689, 4708, 4707, 4403, 4404, 4423, 4422
2615, 4689, 4690, 4709, 4708, 4404, 4405, 4424, 4423
2616, 4690, 4691, 4710, 4709, 4405, 4406, 4425, 4424
2617, 4691, 4692, 4711, 4710, 4406, 4407, 4426, 4425
2618, 4692, 4693, 4712, 4711, 4407, 4408, 4427, 4426
2619, 4693, 4694, 4713, 4712, 4408, 4409, 4428, 4427
2620, 4694, 2092, 2093, 4713, 4409, 2077, 2078, 4428
2621, 2033, 4695, 4714, 2034, 2018, 4410, 4429, 2019
2622, 4695, 4696, 4715, 4714, 4410, 4411, 4430, 4429
2623, 4696, 4697, 4716, 4715, 4411, 4412, 4431, 4430
2624, 4697, 4698, 4717, 4716, 4412, 4413, 4432, 4431
2625, 4698, 4699, 4718, 4717, 4413, 4414, 4433, 4432
2626, 4699, 4700, 4719, 4718, 4414, 4415, 4434, 4433
2627, 4700, 4701, 4720, 4719, 4415, 4416, 4435, 4434
2628, 4701, 4702, 4721, 4720, 4416, 4417, 4436, 4435
2629, 4702, 4703, 4722, 4721, 4417, 4418, 4437, 4436
2630, 4703, 4704, 4723, 4722, 4418, 4419, 4438, 4437
2631, 4704, 4705, 4724, 4723, 4419, 4420, 4439, 4438
2632, 4705, 4706, 4725, 4724, 4420, 4421, 4440, 4439
2633, 4706, 4707, 4726, 4725, 4421, 4422, 4441, 4440
2634, 4707, 4708, 4727, 4726, 4422, 4423, 4442, 4441
2635, 4708, 4709, 4728, 4727, 4423, 4424, 4443, 4442
2636, 4709, 4710, 4729, 4728, 4424, 4425, 4444, 4443
2637, 4710, 4711, 4730, 4729, 4425, 4426, 4445, 4444
2638, 4711, 4712, 4731, 4730, 4426, 4427, 4446, 4445
2639, 4712, 4713, 4732, 4731, 4427, 4428, 4447, 4446
2640, 4713, 2093, 2094, 4732, 4428, 2078, 2079, 4447
2641, 2034, 4714, 4733, 2035, 2019, 4429, 4448, 2020
2642, 4714, 4715, 4734, 4733, 4429, 4430, 4449, 4448
2643, 4715, 4716, 4735, 4734, 4430, 4431, 4450, 4449
2644, 4716, 4717, 4736, 4735, 4431, 4432, 4451, 4450
2645, 4717, 4718, 4737, 4736, 4432, 4433, 4452, 4451
2646, 4718, 4719, 4738, 4737, 4433, 4434, 4453, 4452
2647, 4719, 4720, 4739, 4738, 4434, 4435, 4454, 4453
2648, 4720, 4721, 4740, 4739, 4435, 4436, 4455, 4454
2649, 4721, 4722, 4741, 4740, 4436, 4437, 4456, 4455
2650, 4722, 4723, 4742, 4741, 4437, 4438, 4457, 4456
2651, 4723, 4724, 4743, 4742, 4438, 4439, 4458, 4457
2652, 4724, 4725, 4744, 4743, 4439, 4440, 4459, 4458
2653, 4725, 4726, 4745, 4744, 4440, 4441, 4460, 4459
2654, 4726, 4727, 4746, 4745, 4441, 4442, 4461, 4460
2655, 4727, 4728, 4747, 4746, 4442, 4443, 4462, 4461
2656, 4728, 4729, 4748, 4747, 4443, 4444, 4463, 4462
2657, 4729, 4730, 4749, 4748, 4444, 4445, 4464, 4463
2658, 4730, 4731, 4750, 4749, 4445, 4446, 4465, 4464
2659, 4731, 4732, 4751, 4750, 4446, 4447, 4466, 4465
2660, 4732, 2094, 2095, 4751, 4447, 2079, 2080, 4466
2661, 2035, 4733, 4752, 2036, 2020, 4448, 4467, 2021
2662, 4733, 4734, 4753, 4752, 4448, 4449, 4468, 4467
2663, 4734, 4735, 4754, 4753, 4449, 4450, 4469, 4468
2664, 4735, 4736, 4755, 4754, 4450, 4451, 4470, 4469
2665, 4736, 4737, 4756, 4755, 4451, 4452, 4471, 4470
2666, 4737, 4738, 4757, 4756, 4452, 4453, 4472, 4471
2667, 4738, 4739, 4758, 4757, 4453, 4454, 4473, 4472
2668, 4739, 4740, 4759, 4758, 4454, 4455, 4474, 4473
2669, 4740, 4741, 4760, 4759, 4455, 4456, 4475, 4474
2670, 4741, 4742, 4761, 4760, 4456, 4457, 4476, 4475
2671, 4742, 4743, 4762, 4761, 4457, 4458, 4477, 4476
2672, 4743, 4744, 4763, 4762, 4458, 4459, 4478, 4477
2673, 4744, 4745, 4764, 4763, 4459, 4460, 4479, 4478
2674, 4745, 4746, 4765, 4764, 4460, 4461, 4480, 4479
2675, 4746, 4747, 4766, 4765, 4461, 4462, 4481, 4480
2676, 4747, 4748, 4767, 4766, 4462, 4463, 4482, 4481
2677, 4748, 4749, 4768, 4767, 4463, 4464, 4483, 4482
2678, 4749, 4750, 4769, 4768, 4464, 4465, 4484, 4483
2679, 4750, 4751, 4770, 4769, 4465, 4466, 4485, 4484
2680, 4751, 2095, 2096, 4770, 4466, 2080, 2081, 4485
2681, 2036, 4752, 4771, 2037, 2021, 4467, 4486, 2022
2682, 4752, 4753, 4772, 4771, 4467, 4468, 4487, 4486
2683, 4753, 4754, 4773, 4772, 4468, 4469, 4488, 4487
2684, 4754, 4755, 4774, 4773, 4469, 4470, 4489, 4488
2685, 4755, 4756, 4775, 4774, 4470, 4471, 4490, 4489
2686, 4756, 4757, 4776, 4775, 4471, 4472, 4491, 4490
2687, 4757, 4758, 4777, 4776, 4472, 4473, 4492, 4491
2688, 4758, 4759, 4778, 4777, 4473, 4474, 4493, 4492
2689, 4759, 4760, 4779, 4778, 4474, 4475, 4494, 4493
2690, 4760, 4761, 4780, 4779, 4475, 4476, 4495, 4494
2691, 4761, 4762, 4781, 4780, 4476, 4477, 4496, 4495
2692, 4762, 4763, 4782, 4781, 4477, 4478, 4497, 4496
2693, 4763, 4764, 4783, 4782, 4478, 4479, 4498, 4497
2694, 4764, 4765, 4784, 4783, 4479, 4480, 4499, 4498
2695, 4765, 4766, 4785, 4784, 4480, 4481, 4500, 4499
2696, 4766, 4767, 4786, 4785, 4481, 4482, 4501, 4500
2697, 4767, 4768, 4787, 4786, 4482, 4483, 4502, 4501
2698, 4768, 4769, 4788, 4787, 4483, 4484, 4503, 4502
2699, 4769, 4770, 4789, 4788, 4484, 4485, 4504, 4503
2700, 4770, 2096, 2097, 4789, 4485, 2081, 2082, 4504
2701, 2037, 4771, 4790, 2038, 2022, 4486, 4505, 2023
2702, 4771, 4772, 4791, 4790, 4486, 4487, 4506, 4505
2703, 4772, 4773, 4792, 4791, 4487, 4488, 4507, 4506
2704, 4773, 4774, 4793, 4792, 4488, 4489, 4508, 4507
2705, 4774, 4775, 4794, 4793, 4489, 4490, 4509, 4508
2706, 4775, 4776, 4795, 4794, 4490, 4491, 4510, 4509
2707, 4776, 4777, 4796, 4795, 4491, 4492, 4511, 4510
2708, 4777, 4778, 4797, 4796, 4492, 4493, 4512, 4511
2709, 4778, 4779, 4798, 4797, 4493, 4494, 4513, 4512
2710, 4779, 4780, 4799, 4798, 4494, 4495, 4514, 4513
2711, 4780, 4781, 4800, 4799, 4495, 4496, 4515, 4514
2712, 4781, 4782, 4801, 4800, 4496, 4497, 4516, 4515
2713, 4782, 4783, 4802, 4801, 4497, 4498, 4517, 4516
2714, 4783, 4784, 4803, 4802, 4498, 4499, 4518, 4517
2715, 4784, 4785, 4804, 4803, 4499, 4500, 4519, 4518
2716, 4785, 4786, 4805, 4804, 4500, 4501, 4520, 4519
2717, 4786, 4787, 4806, 4805, 4501, 4502, 4521, 4520
2718, 4787, 4788, 4807, 4806, 4502, 4503, 4522, 4521
2719, 4788, 4789, 4808, 4807, 4503, 4504, 4523, 4522
2720, 4789, 2097, 2098, 4808, 4504, 2082, 2083, 4523
2721, 2038, 4790, 4809, 2039, 2023, 4505, 4524, 2024
2722, 4790, 4791, 4810, 4809, 4505, 4506, 4525, 4524
2723, 4791, 4792, 4811, 4810, 4506, 4507, 4526, 4525
2724, 4792, 4793, 4812, 4811, 4507, 4508, 4527, 4526
2725, 4793, 4794, 4813, 4812, 4508, 4509, 4528, 4527
2726, 4794, 4795, 4814, 4813, 4509, 4510, 4529, 4528
2727, 4795, 4796, 4815, 4814, 4510, 4511, 4530, 4529
2728, 4796, 4797, 4816, 4815, 4511, 4512, 4531, 4530
2729, 4797, 4798, 4817, 4816, 4512, 4513, 4532, 4531
2730, 4798, 4799, 4818, 4817, 4513, 4514, 4533, 4532
2731, 4799, 4800, 4819, 4818, 4514, 4515, 4534, 4533
2732, 4800, 4801, 4820, 4819, 4515, 4516, 4535, 4534
2733, 4801, 4802, 4821, 4820, 4516, 4517, 4536, 4535
2734, 4802, 4803, 4822, 4821, 4517, 4518, 4537, 4536
2735, 4803, 4804, 4823, 4822, 4518, 4519, 4538, 4537
2736, 4804, 4805, 4824, 4823, 4519, 4520, 4539, 4538
2737, 4805, 4806, 4825, 4824, 4520, 4521, 4540, 4539
2738, 4806, 4807, 4826, 4825, 4521, 4522, 4541, 4540
2739, 4807, 4808, 4827, 4826, 4522, 4523, 4542, 4541
2740, 4808, 2098, 2099, 4827, 4523, 2083, 2084, 4542
2741, 2039, 4809, 2153,  327, 2024, 4524, 2134,  326
2742, 4809, 4810, 2154, 2153, 4524, 4525, 2135, 2134
2743, 4810, 4811, 2155, 2154, 4525, 4526, 2136, 2135
2744, 4811, 4812, 2156, 2155, 4526, 4527, 2137, 2136
2745, 4812, 4813, 2157, 2156, 4527, 4528, 2138, 2137
2746, 4813, 4814, 2158, 2157, 4528, 4529, 2139, 2138
2747, 4814, 4815, 2159, 2158, 4529, 4530, 2140, 2139
2748, 4815, 4816, 2160, 2159, 4530, 4531, 2141, 2140
2749, 4816, 4817, 2161, 2160, 4531, 4532, 2142, 2141
2750, 4817, 4818, 2162, 2161, 4532, 4533, 2143, 2142
2751, 4818, 4819, 2163, 2162, 4533, 4534, 2144, 2143
2752, 4819, 4820, 2164, 2163, 4534, 4535, 2145, 2144
2753, 4820, 4821, 2165, 2164, 4535, 4536, 2146, 2145
2754, 4821, 4822, 2166, 2165, 4536, 4537, 2147, 2146
2755, 4822, 4823, 2167, 2166, 4537, 4538, 2148, 2147
2756, 4823, 4824, 2168, 2167, 4538, 4539, 2149, 2148
2757, 4824, 4825, 2169, 2168, 4539, 4540, 2150, 2149
2758, 4825, 4826, 2170, 2169, 4540, 4541, 2151, 2150
2759, 4826, 4827, 2171, 2170, 4541, 4542, 2152, 2151
2760, 4827, 2099,  330, 2171, 4542, 2084,  331, 2152
2761,  226, 1367, 4828, 2040,  225, 1386, 4543, 2025
2762, 1367, 1366, 4829, 4828, 1386, 1385, 4544, 4543
2763, 1366, 1365, 4830, 4829, 1385, 1384, 4545, 4544
2764, 1365, 1364, 4831, 4830, 1384, 1383, 4546, 4545
2765, 1364, 1363, 4832, 4831, 1383, 1382, 4547, 4546
2766, 1363, 1362, 4833, 4832, 1382, 1381, 4548, 4547
2767, 1362, 1361, 4834, 4833, 1381, 1380, 4549, 4548
2768, 1361, 1360, 4835, 4834, 1380, 1379, 4550, 4549
2769, 1360, 1359, 4836, 4835, 1379, 1378, 4551, 4550
2770, 1359, 1358, 4837, 4836, 1378, 1377, 4552, 4551
2771, 1358, 1357, 4838, 4837, 1377, 1376, 4553, 4552
2772, 1357, 1356, 4839, 4838, 1376, 1375, 4554, 4553
2773, 1356, 1355, 4840, 4839, 1375, 1374, 4555, 4554
2774, 1355, 1354, 4841, 4840, 1374, 1373, 4556, 4555
2775, 1354, 1353, 4842, 4841, 1373, 1372, 4557, 4556
2776, 1353, 1352, 4843, 4842, 1372, 1371, 4558, 4557
2777, 1352, 1351, 4844, 4843, 1371, 1370, 4559, 4558
2778, 1351, 1350, 4845, 4844, 1370, 1369, 4560, 4559
2779, 1350, 1349, 4846, 4845, 1369, 1368, 4561, 4560
2780, 1349,  219, 2100, 4846, 1368,  220, 2085, 4561
2781, 2040, 4828, 4847, 2041, 2025, 4543, 4562, 2026
2782, 4828, 4829, 4848, 4847, 4543, 4544, 4563, 4562
2783, 4829, 4830, 4849, 4848, 4544, 4545, 4564, 4563
2784, 4830, 4831, 4850, 4849, 4545, 4546, 4565, 4564
2785, 4831, 4832, 4851, 4850, 4546, 4547, 4566, 4565
2786, 4832, 4833, 4852, 4851, 4547, 4548, 4567, 4566
2787, 4833, 4834, 4853, 4852, 4548, 4549, 4568, 4567
2788, 4834, 4835, 4854, 4853, 4549, 4550, 4569, 4568
2789, 4835, 4836, 4855, 4854, 4550, 4551, 4570, 4569
2790, 4836, 4837, 4856, 4855, 4551, 4552, 4571, 4570
2791, 4837, 4838, 4857, 4856, 4552, 4553, 4572, 4571
2792, 4838, 4839, 4858, 4857, 4553, 4554, 4573, 4572
2793, 4839, 4840, 4859, 4858, 4554, 4555, 4574, 4573
2794, 4840, 4841, 4860, 4859, 4555, 4556, 4575, 4574
2795, 4841, 4842, 4861, 4860, 4556, 4557, 4576, 4575
2796, 4842, 4843, 4862, 4861, 4557, 4558, 4577, 4576
2797, 4843, 4844, 4863, 4862, 4558, 4559, 4578, 4577
2798, 4844, 4845, 4864, 4863, 4559, 4560, 4579, 4578
2799, 4845, 4846, 4865, 4864, 4560, 4561, 4580, 4579
2800, 4846, 2100, 2101, 4865, 4561, 2085, 2086, 4580
2801, 2041, 4847, 4866, 2042, 2026, 4562, 4581, 2027
2802, 4847, 4848, 4867, 4866, 4562, 4563, 4582, 4581
2803, 4848, 4849, 4868, 4867, 4563, 4564, 4583, 4582
2804, 4849, 4850, 4869, 4868, 4564, 4565, 4584, 4583
2805, 4850, 4851, 4870, 4869, 4565, 4566, 4585, 4584
2806, 4851, 4852, 4871, 4870, 4566, 4567, 4586, 4585
2807, 4852, 4853, 4872, 4871, 4567, 4568, 4587, 4586
2808, 4853, 4854, 4873, 4872, 4568, 4569, 4588, 4587
2809, 4854, 4855, 4874, 4873, 4569, 4570, 4589, 4588
2810, 4855, 4856, 4875, 4874, 4570, 4571, 4590, 4589
2811, 4856, 4857, 4876, 4875, 4571, 4572, 4591, 4590
2812, 4857, 4858, 4877, 4876, 4572, 4573, 4592, 4591
2813, 4858, 4859, 4878, 4877, 4573, 4574, 4593, 4592
2814, 4859, 4860, 4879, 4878, 4574, 4575, 4594, 4593
2815, 4860, 4861, 4880, 4879, 4575, 4576, 4595, 4594
2816, 4861, 4862, 4881, 4880, 4576, 4577, 4596, 4595
2817, 4862, 4863, 4882, 4881, 4577, 4578, 4597, 4596
2818, 4863, 4864, 4883, 4882, 4578, 4579, 4598, 4597
2819, 4864, 4865, 4884, 4883, 4579, 4580, 4599, 4598
2820, 4865, 2101, 2102, 4884, 4580, 2086, 2087, 4599
2821, 2042, 4866, 4885, 2043, 2027, 4581, 4600, 2028
2822, 4866, 4867, 4886, 4885, 4581, 4582, 4601, 4600
2823, 4867, 4868, 4887, 4886, 4582, 4583, 4602, 4601
2824, 4868, 4869, 4888, 4887, 4583, 4584, 4603, 4602
2825, 4869, 4870, 4889, 4888, 4584, 4585, 4604, 4603
2826, 4870, 4871, 4890, 4889, 4585, 4586, 4605, 4604
2827, 4871, 4872, 4891, 4890, 4586, 4587, 4606, 4605
2828, 4872, 4873, 4892, 4891, 4587, 4588, 4607, 4606
2829, 4873, 4874, 4893, 4892, 4588, 4589, 4608, 4607
2830, 4874, 4875, 4894, 4893, 4589, 4590, 4609, 4608
2831, 4875, 4876, 4895, 4894, 4590, 4591, 4610, 4609
2832, 4876, 4877, 4896, 4895, 4591, 4592, 4611, 4610
2833, 4877, 4878, 4897, 4896, 4592, 4593, 4612, 4611
2834, 4878, 4879, 4898, 4897, 4593, 4594, 4613, 4612
2835, 4879, 4880, 4899, 4898, 4594, 4595, 4614, 4613
2836, 4880, 4881, 4900, 4899, 4595, 4596, 4615, 4614
2837, 4881, 4882, 4901, 4900, 4596, 4597, 4616, 4615
2838, 4882, 4883, 4902, 4901, 4597, 4598, 4617, 4616
2839, 4883, 4884, 4903, 4902, 4598, 4599, 4618, 4617
2840, 4884, 2102, 2103, 4903, 4599, 2087, 2088, 4618
2841, 2043, 4885, 4904, 2044, 2028, 4600, 4619, 2029
2842, 4885, 4886, 4905, 4904, 4600, 4601, 4620, 4619
2843, 4886, 4887, 4906, 4905, 4601, 4602, 4621, 4620
2844, 4887, 4888, 4907, 4906, 4602, 4603, 4622, 4621
2845, 4888, 4889, 4908, 4907, 4603, 4604, 4623, 4622
2846, 4889, 4890, 4909, 4908, 4604, 4605, 4624, 4623
2847, 4890, 4891, 4910, 4909, 4605, 4606, 4625, 4624
2848, 4891, 4892, 4911, 4910, 4606, 4607, 4626, 4625
2849, 4892, 4893, 4912, 4911, 4607, 4608, 4627, 4626
2850, 4893, 4894, 4913, 4912, 4608, 4609, 4628, 4627
2851, 4894, 4895, 4914, 4913, 4609, 4610, 4629, 4628
2852, 4895, 4896, 4915, 4914, 4610, 4611, 4630, 4629
2853, 4896, 4897, 4916, 4915, 4611, 4612, 4631, 4630
2854, 4897, 4898, 4917, 4916, 4612, 4613, 4632, 4631
2855, 4898, 4899, 4918, 4917, 4613, 4614, 4633, 4632
2856, 4899, 4900, 4919, 4918, 4614, 4615, 4634, 4633
2857, 4900, 4901, 4920, 4919, 4615, 4616, 4635, 4634
2858, 4901, 4902, 4921, 4920, 4616, 4617, 4636, 4635
2859, 4902, 4903, 4922, 4921, 4617, 4618, 4637, 4636
2860, 4903, 2103, 2104, 4922, 4618, 2088, 2089, 4637
2861, 2044, 4904, 4923, 2045, 2029, 4619, 4638, 2030
2862, 4904, 4905, 4924, 4923, 4619, 4620, 4639, 4638
2863, 4905, 4906, 4925, 4924, 4620, 4621, 4640, 4639
2864, 4906, 4907, 4926, 4925, 4621, 4622, 4641, 4640
2865, 4907, 4908, 4927, 4926, 4622, 4623, 4642, 4641
2866, 4908, 4909, 4928, 4927, 4623, 4624, 4643, 4642
2867, 4909, 4910, 4929, 4928, 4624, 4625, 4644, 4643
2868, 4910, 4911, 4930, 4929, 4625, 4626, 4645, 4644
2869, 4911, 4912, 4931, 4930, 4626, 4627, 4646, 4645
2870, 4912, 4913, 4932, 4931, 4627, 4628, 4647, 4646
2871, 4913, 4914, 4933, 4932, 4628, 4629, 4648, 4647
2872, 4914, 4915, 4934, 4933, 4629, 4630, 4649, 4648
2873, 4915, 4916, 4935, 4934, 4630, 4631, 4650, 4649
2874, 4916, 4917, 4936, 4935, 4631, 4632, 4651, 4650
2875, 4917, 4918, 4937, 4936, 4632, 4633, 4652, 4651
2876, 4918, 4919, 4938, 4937, 4633, 4634, 4653, 4652
2877, 4919, 4920, 4939, 4938, 4634, 4635, 4654, 4653
2878, 4920, 4921, 4940, 4939, 4635, 4636, 4655, 4654
2879, 4921, 4922, 4941, 4940, 4636, 4637, 4656, 4655
2880, 4922, 2104, 2105, 4941, 4637, 2089, 2090, 4656
2881, 2045, 4923, 4942, 2046, 2030, 4638, 4657, 2031
2882, 4923, 4924, 4943, 4942, 4638, 4639, 4658, 4657
2883, 4924, 4925, 4944, 4943, 4639, 4640, 4659, 4658
2884, 4925, 4926, 4945, 4944, 4640, 4641, 4660, 4659
2885, 4926, 4927, 4946, 4945, 4641, 4642, 4661, 4660
2886, 4927, 4928, 4947, 4946, 4642, 4643, 4662, 4661
2887, 4928, 4929, 4948, 4947, 4643, 4644, 4663, 4662
2888, 4929, 4930, 4949, 4948, 4644, 4645, 4664, 4663
2889, 4930, 4931, 4950, 4949, 4645, 4646, 4665, 4664
2890, 4931, 4932, 4951, 4950, 4646, 4647, 4666, 4665
2891, 4932, 4933, 4952, 4951, 4647, 4648, 4667, 4666
2892, 4933, 4934, 4953, 4952, 4648, 4649, 4668, 4667
2893, 4934, 4935, 4954, 4953, 4649, 4650, 4669, 4668
2894, 4935, 4936, 4955, 4954, 4650, 4651, 4670, 4669
2895, 4936, 4937, 4956, 4955, 4651, 4652, 4671, 4670
2896, 4937, 4938, 4957, 4956, 4652, 4653, 4672, 4671
2897, 4938, 4939, 4958, 4957, 4653, 4654, 4673, 4672
2898, 4939, 4940, 4959, 4958, 4654, 4655, 4674, 4673
2899, 4940, 4941, 4960, 4959, 4655, 4656, 4675, 4674
2900, 4941, 2105, 2106, 4960, 4656, 2090, 2091, 4675
2901, 2046, 4942, 4961, 2047, 2031, 4657, 4676, 2032
2902, 4942, 4943, 4962, 4961, 4657, 4658, 4677, 4676
2903, 4943, 4944, 4963, 4962, 4658, 4659, 4678, 4677
2904, 4944, 4945, 4964, 4963, 4659, 4660, 4679, 4678
2905, 4945, 4946, 4965, 4964, 4660, 4661, 4680, 4679
2906, 4946, 4947, 4966, 4965, 4661, 4662, 4681, 4680
2907, 4947, 4948, 4967, 4966, 4662, 4663, 4682, 4681
2908, 4948, 4949, 4968, 4967, 4663, 4664, 4683, 4682
2909, 4949, 4950, 4969, 4968, 4664, 4665, 4684, 4683
2910, 4950, 4951, 4970, 4969, 4665, 4666, 4685, 4684
2911, 4951, 4952, 4971, 4970, 4666, 4667, 4686, 4685
2912, 4952, 4953, 4972, 4971, 4667, 4668, 4687, 4686
2913, 4953, 4954, 4973, 4972, 4668, 4669, 4688, 4687
2914, 4954, 4955, 4974, 4973, 4669, 4670, 4689, 4688
2915, 4955, 4956, 4975, 4974, 4670, 4671, 4690, 4689
2916, 4956, 4957, 4976, 4975, 4671, 4672, 4691, 4690
2917, 4957, 4958, 4977, 4976, 4672, 4673, 4692, 4691
2918, 4958, 4959, 4978, 4977, 4673, 4674, 4693, 4692
2919, 4959, 4960, 4979, 4978, 4674, 4675, 4694, 4693
2920, 4960, 2106, 2107, 4979, 4675, 2091, 2092, 4694
2921, 2047, 4961, 4980, 2048, 2032, 4676, 4695, 2033
2922, 4961, 4962, 4981, 4980, 4676, 4677, 4696, 4695
2923, 4962, 4963, 4982, 4981, 4677, 4678, 4697, 4696
2924, 4963, 4964, 4983, 4982, 4678, 4679, 4698, 4697
2925, 4964, 4965, 4984, 4983, 4679, 4680, 4699, 4698
2926, 4965, 4966, 4985, 4984, 4680, 4681, 4700, 4699
2927, 4966, 4967, 4986, 4985, 4681, 4682, 4701, 4700
2928, 4967, 4968, 4987, 4986, 4682, 4683, 4702, 4701
2929, 4968, 4969, 4988, 4987, 4683, 4684, 4703, 4702
2930, 4969, 4970, 4989, 4988, 4684, 4685, 4704, 4703
2931, 4970, 4971, 4990, 4989, 4685, 4686, 4705, 4704
2932, 4971, 4972, 4991, 4990, 4686, 4687, 4706, 4705
2933, 4972, 4973, 4992, 4991, 4687, 4688, 4707, 4706
2934, 4973, 4974, 4993, 4992, 4688, 4689, 4708, 4707
2935, 4974, 4975, 4994, 4993, 4689, 4690, 4709, 4708
2936, 4975, 4976, 4995, 4994, 4690, 4691, 4710, 4709
2937, 4976, 4977, 4996, 4995, 4691, 4692, 4711, 4710
2938, 4977, 4978, 4997, 4996, 4692, 4693, 4712, 4711
2939, 4978, 4979, 4998, 4997, 4693, 4694, 4713, 4712
2940, 4979, 2107, 2108, 4998, 4694, 2092, 2093, 4713
2941, 2048, 4980, 4999, 2049, 2033, 4695, 4714, 2034
2942, 4980, 4981, 5000, 4999, 4695, 4696, 4715, 4714
2943, 4981, 4982, 5001, 5000, 4696, 4697, 4716, 4715
2944, 4982, 4983, 5002, 5001, 4697, 4698, 4717, 4716
2945, 4983, 4984, 5003, 5002, 4698, 4699, 4718, 4717
2946, 4984, 4985, 5004, 5003, 4699, 4700, 4719, 4718
2947, 4985, 4986, 5005, 5004, 4700, 4701, 4720, 4719
2948, 4986, 4987, 5006, 5005, 4701, 4702, 4721, 4720
2949, 4987, 4988, 5007, 5006, 4702, 4703, 4722, 4721
2950, 4988, 4989, 5008, 5007, 4703, 4704, 4723, 4722
2951, 4989, 4990, 5009, 5008, 4704, 4705, 4724, 4723
2952, 4990, 4991, 5010, 5009, 4705, 4706, 4725, 4724
2953, 4991, 4992, 5011, 5010, 4706, 4707, 4726, 4725
2954, 4992, 4993, 5012, 5011, 4707, 4708, 4727, 4726
2955, 4993, 4994, 5013, 5012, 4708, 4709, 4728, 4727
2956, 4994, 4995, 5014, 5013, 4709, 4710, 4729, 4728
2957, 4995, 4996, 5015, 5014, 4710, 4711, 4730, 4729
2958, 4996, 4997, 5016, 5015, 4711, 4712, 4731, 4730
2959, 4997, 4998, 5017, 5016, 4712, 4713, 4732, 4731
2960, 4998, 2108, 2109, 5017, 4713, 2093, 2094, 4732
2961, 2049, 4999, 5018, 2050, 2034, 4714, 4733, 2035
2962, 4999, 5000, 5019, 5018, 4714, 4715, 4734, 4733
2963, 5000, 5001, 5020, 5019, 4715, 4716, 4735, 4734
2964, 5001, 5002, 5021, 5020, 4716, 4717, 4736, 4735
2965, 5002, 5003, 5022, 5021, 4717, 4718, 4737, 4736
2966, 5003, 5004, 5023, 5022, 4718, 4719, 4738, 4737
2967, 5004, 5005, 5024, 5023, 4719, 4720, 4739, 4738
2968, 5005, 5006, 5025, 5024, 4720, 4721, 4740, 4739
2969, 5006, 5007, 5026, 5025, 4721, 4722, 4741, 4740
2970, 5007, 5008, 5027, 5026, 4722, 4723, 4742, 4741
2971, 5008, 5009, 5028, 5027, 4723, 4724, 4743, 4742
2972, 5009, 5010, 5029, 5028, 4724, 4725, 4744, 4743
2973, 5010, 5011, 5030, 5029, 4725, 4726, 4745, 4744
2974, 5011, 5012, 5031, 5030, 4726, 4727, 4746, 4745
2975, 5012, 5013, 5032, 5031, 4727, 4728, 4747, 4746
2976, 5013, 5014, 5033, 5032, 4728, 4729, 4748, 4747
2977, 5014, 5015, 5034, 5033, 4729, 4730, 4749, 4748
2978, 5015, 5016, 5035, 5034, 4730, 4731, 4750, 4749
2979, 5016, 5017, 5036, 5035, 4731, 4732, 4751, 4750
2980, 5017, 2109, 2110, 5036, 4732, 2094, 2095, 4751
2981, 2050, 5018, 5037, 2051, 2035, 4733, 4752, 2036
2982, 5018, 5019, 5038, 5037, 4733, 4734, 4753, 4752
2983, 5019, 5020, 5039, 5038, 4734, 4735, 4754, 4753
2984, 5020, 5021, 5040, 5039, 4735, 4736, 4755, 4754
2985, 5021, 5022, 5041, 5040, 4736, 4737, 4756, 4755
2986, 5022, 5023, 5042, 5041, 4737, 4738, 4757, 4756
2987, 5023, 5024, 5043, 5042, 4738, 4739, 4758, 4757
2988, 5024, 5025, 5044, 5043, 4739, 4740, 4759, 4758
2989, 5025, 5026, 5045, 5044, 4740, 4741, 4760, 4759
2990, 5026, 5027, 5046, 5045, 4741, 4742, 4761, 4760
2991, 5027, 5028, 5047, 5046, 4742, 4743, 4762, 4761
2992, 5028, 5029, 5048, 5047, 4743, 4744, 4763, 4762
2993, 5029, 5030, 5049, 5048, 4744, 4745, 4764, 4763
2994, 5030, 5031, 5050, 5049, 4745, 4746, 4765, 4764
2995, 5031, 5032, 5051, 5050, 4746, 4747, 4766, 4765
2996, 5032, 5033, 5052, 5051, 4747, 4748, 4767, 4766
2997, 5033, 5034, 5053, 5052, 4748, 4749, 4768, 4767
2998, 5034, 5035, 5054, 5053, 4749, 4750, 4769, 4768
2999, 5035, 5036, 5055, 5054, 4750, 4751, 4770, 4769
3000, 5036, 2110, 2111, 5055, 4751, 2095, 2096, 4770
3001, 2051, 5037, 5056, 2052, 2036, 4752, 4771, 2037
3002, 5037, 5038, 5057, 5056, 4752, 4753, 4772, 4771
3003, 5038, 5039, 5058, 5057, 4753, 4754, 4773, 4772
3004, 5039, 5040, 5059, 5058, 4754, 4755, 4774, 4773
3005, 5040, 5041, 5060, 5059, 4755, 4756, 4775, 4774
3006, 5041, 5042, 5061, 5060, 4756, 4757, 4776, 4775
3007, 5042, 5043, 5062, 5061, 4757, 4758, 4777, 4776
3008, 5043, 5044, 5063, 5062, 4758, 4759, 4778, 4777
3009, 5044, 5045, 5064, 5063, 4759, 4760, 4779, 4778
3010, 5045, 5046, 5065, 5064, 4760, 4761, 4780, 4779
3011, 5046, 5047, 5066, 5065, 4761, 4762, 4781, 4780
3012, 5047, 5048, 5067, 5066, 4762, 4763, 4782, 4781
3013, 5048, 5049, 5068, 5067, 4763, 4764, 4783, 4782
3014, 5049, 5050, 5069, 5068, 4764, 4765, 4784, 4783
3015, 5050, 5051, 5070, 5069, 4765, 4766, 4785, 4784
3016, 5051, 5052, 5071, 5070, 4766, 4767, 4786, 4785
3017, 5052, 5053, 5072, 5071, 4767, 4768, 4787, 4786
3018, 5053, 5054, 5073, 5072, 4768, 4769, 4788, 4787
3019, 5054, 5055, 5074, 5073, 4769, 4770, 4789, 4788
3020, 5055, 2111, 2112, 5074, 4770, 2096, 2097, 4789
3021, 2052, 5056, 5075, 2053, 2037, 4771, 4790, 2038
3022, 5056, 5057, 5076, 5075, 4771, 4772, 4791, 4790
3023, 5057, 5058, 5077, 5076, 4772, 4773, 4792, 4791
3024, 5058, 5059, 5078, 5077, 4773, 4774, 4793, 4792
3025, 5059, 5060, 5079, 5078, 4774, 4775, 4794, 4793
3026, 5060, 5061, 5080, 5079, 4775, 4776, 4795, 4794
3027, 5061, 5062, 5081, 5080, 4776, 4777, 4796, 4795
3028, 5062, 5063, 5082, 5081, 4777, 4778, 4797, 4796
3029, 5063, 5064, 5083, 5082, 4778, 4779, 4798, 4797
3030, 5064, 5065, 5084, 5083, 4779, 4780, 4799, 4798
3031, 5065, 5066, 5085, 5084, 4780, 4781, 4800, 4799
3032, 5066, 5067, 5086, 5085, 4781, 4782, 4801, 4800
3033, 5067, 5068, 5087, 5086, 4782, 4783, 4802, 4801
3034, 5068, 5069, 5088, 5087, 4783, 4784, 4803, 4802
3035, 5069, 5070, 5089, 5088, 4784, 4785, 4804, 4803
3036, 5070, 5071, 5090, 5089, 4785, 4786, 4805, 4804
3037, 5071, 5072, 5091, 5090, 4786, 4787, 4806, 4805
3038, 5072, 5073, 5092, 5091, 4787, 4788, 4807, 4806
3039, 5073, 5074, 5093, 5092, 4788, 4789, 4808, 4807
3040, 5074, 2112, 2113, 5093, 4789, 2097, 2098, 4808
3041, 2053, 5075, 5094, 2054, 2038, 4790, 4809, 2039
3042, 5075, 5076, 5095, 5094, 4790, 4791, 4810, 4809
3043, 5076, 5077, 5096, 5095, 4791, 4792, 4811, 4810
3044, 5077, 5078, 5097, 5096, 4792, 4793, 4812, 4811
3045, 5078, 5079, 5098, 5097, 4793, 4794, 4813, 4812
3046, 5079, 5080, 5099, 5098, 4794, 4795, 4814, 4813
3047, 5080, 5081, 5100, 5099, 4795, 4796, 4815, 4814
3048, 5081, 5082, 5101, 5100, 4796, 4797, 4816, 4815
3049, 5082, 5083, 5102, 5101, 4797, 4798, 4817, 4816
3050, 5083, 5084, 5103, 5102, 4798, 4799, 4818, 4817
3051, 5084, 5085, 5104, 5103, 4799, 4800, 4819, 4818
3052, 5085, 5086, 5105, 5104, 4800, 4801, 4820, 4819
3053, 5086, 5087, 5106, 5105, 4801, 4802, 4821, 4820
3054, 5087, 5088, 5107, 5106, 4802, 4803, 4822, 4821
3055, 5088, 5089, 5108, 5107, 4803, 4804, 4823, 4822
3056, 5089, 5090, 5109, 5108, 4804, 4805, 4824, 4823
3057, 5090, 5091, 5110, 5109, 4805, 4806, 4825, 4824
3058, 5091, 5092, 5111, 5110, 4806, 4807, 4826, 4825
3059, 5092, 5093, 5112, 5111, 4807, 4808, 4827, 4826
3060, 5093, 2113, 2114, 5112, 4808, 2098, 2099, 4827
3061, 2054, 5094, 2172,  328, 2039, 4809, 2153,  327
3062, 5094, 5095, 2173, 2172, 4809, 4810, 2154, 2153
3063, 5095, 5096, 2174, 2173, 4810, 4811, 2155, 2154
3064, 5096, 5097, 2175, 2174, 4811, 4812, 2156, 2155
3065, 5097, 5098, 2176, 2175, 4812, 4813, 2157, 2156
3066, 5098, 5099, 2177, 2176, 4813, 4814, 2158, 2157
3067, 5099, 5100, 2178, 2177, 4814, 4815, 2159, 2158
3068, 5100, 5101, 2179, 2178, 4815, 4816, 2160, 2159
3069, 5101, 5102, 2180, 2179, 4816, 4817, 2161, 2160
3070, 5102, 5103, 2181, 2180, 4817, 4818, 2162, 2161
3071, 5103, 5104, 2182, 2181, 4818, 4819, 2163, 2162
3072, 5104, 5105, 2183, 2182, 4819, 4820, 2164, 2163
3073, 5105, 5106, 2184, 2183, 4820, 4821, 2165, 2164
3074, 5106, 5107, 2185, 2184, 4821, 4822, 2166, 2165
3075, 5107, 5108, 2186, 2185, 4822, 4823, 2167, 2166
3076, 5108, 5109, 2187, 2186, 4823, 4824, 2168, 2167
3077, 5109, 5110, 2188, 2187, 4824, 4825, 2169, 2168
3078, 5110, 5111, 2189, 2188, 4825, 4826, 2170, 2169
3079, 5111, 5112, 2190, 2189, 4826, 4827, 2171, 2170
3080, 5112, 2114,  329, 2190, 4827, 2099,  330, 2171
3081,    9,  145, 1710,  310,  226, 1367, 4828, 2040
3082,  145,  146, 1711, 1710, 1367, 1366, 4829, 4828
3083,  146,  147, 1712, 1711, 1366, 1365, 4830, 4829
3084,  147,  148, 1713, 1712, 1365, 1364, 4831, 4830
3085,  148,  149, 1714, 1713, 1364, 1363, 4832, 4831
3086,  149,  150, 1715, 1714, 1363, 1362, 4833, 4832
3087,  150,  151, 1716, 1715, 1362, 1361, 4834, 4833
3088,  151,  152, 1717, 1716, 1361, 1360, 4835, 4834
3089,  152,  153, 1718, 1717, 1360, 1359, 4836, 4835
3090,  153,  154, 1719, 1718, 1359, 1358, 4837, 4836
3091,  154,  155, 1720, 1719, 1358, 1357, 4838, 4837
3092,  155,  156, 1721, 1720, 1357, 1356, 4839, 4838
3093,  156,  157, 1722, 1721, 1356, 1355, 4840, 4839
3094,  157,  158, 1723, 1722, 1355, 1354, 4841, 4840
3095,  158,  159, 1724, 1723, 1354, 1353, 4842, 4841
3096,  159,  160, 1725, 1724, 1353, 1352, 4843, 4842
3097,  160,  161, 1726, 1725, 1352, 1351, 4844, 4843
3098,  161,  162, 1727, 1726, 1351, 1350, 4845, 4844
3099,  162,  163, 1728, 1727, 1350, 1349, 4846, 4845
3100,  163,   10,  290, 1728, 1349,  219, 2100, 4846
3101,  310, 1710, 1729,  311, 2040, 4828, 4847, 2041
3102, 1710, 1711, 1730, 1729, 4828, 4829, 4848, 4847
3103, 1711, 1712, 1731, 1730, 4829, 4830, 4849, 4848
3104, 1712, 1713, 1732, 1731, 4830, 4831, 4850, 4849
3105, 1713, 1714, 1733, 1732, 4831, 4832, 4851, 4850
3106, 1714, 1715, 1734, 1733, 4832, 4833, 4852, 4851
3107, 1715, 1716, 1735, 1734, 4833, 4834, 4853, 4852
3108, 1716, 1717, 1736, 1735, 4834, 4835, 4854, 4853
3109, 1717, 1718, 1737, 1736, 4835, 4836, 4855, 4854
3110, 1718, 1719, 1738, 1737, 4836, 4837, 4856, 4855
3111, 1719, 1720, 1739, 1738, 4837, 4838, 4857, 4856
3112, 1720, 1721, 1740, 1739, 4838, 4839, 4858, 4857
3113, 1721, 1722, 1741, 1740, 4839, 4840, 4859, 4858
3114, 1722, 1723, 1742, 1741, 4840, 4841, 4860, 4859
3115, 1723, 1724, 1743, 1742, 4841, 4842, 4861, 4860
3116, 1724, 1725, 1744, 1743, 4842, 4843, 4862, 4861
3117, 1725, 1726, 1745, 1744, 4843, 4844, 4863, 4862
3118, 1726, 1727, 1746, 1745, 4844, 4845, 4864, 4863
3119, 1727, 1728, 1747, 1746, 4845, 4846, 4865, 4864
3120, 1728,  290,  289, 1747, 4846, 2100, 2101, 4865
3121,  311, 1729, 1748,  312, 2041, 4847, 4866, 2042
3122, 1729, 1730, 1749, 1748, 4847, 4848, 4867, 4866
3123, 1730, 1731, 1750, 1749, 4848, 4849, 4868, 4867
3124, 1731, 1732, 1751, 1750, 4849, 4850, 4869, 4868
3125, 1732, 1733, 1752, 1751, 4850, 4851, 4870, 4869
3126, 1733, 1734, 1753, 1752, 4851, 4852, 4871, 4870
3127, 1734, 1735, 1754, 1753, 4852, 4853, 4872, 4871
3128, 1735, 1736, 1755, 1754, 4853, 4854, 4873, 4872
3129, 1736, 1737, 1756, 1755, 4854, 4855, 4874, 4873
3130, 1737, 1738, 1757, 1756, 4855, 4856, 4875, 4874
3131, 1738, 1739, 1758, 1757, 4856, 4857, 4876, 4875
3132, 1739, 1740, 1759, 1758, 4857, 4858, 4877, 4876
3133, 1740, 1741, 1760, 1759, 4858, 4859, 4878, 4877
3134, 1741, 1742, 1761, 1760, 4859, 4860, 4879, 4878
3135, 1742, 1743, 1762, 1761, 4860, 4861, 4880, 4879
3136, 1743, 1744, 1763, 1762, 4861, 4862, 4881, 4880
3137, 1744, 1745, 1764, 1763, 4862, 4863, 4882, 4881
3138, 1745, 1746, 1765, 1764, 4863, 4864, 4883, 4882
3139, 1746, 1747, 1766, 1765, 4864, 4865, 4884, 4883
3140, 1747,  289,  288, 1766, 4865, 2101, 2102, 4884
3141,  312, 1748, 1767,  313, 2042, 4866, 4885, 2043
3142, 1748, 1749, 1768, 1767, 4866, 4867, 4886, 4885
3143, 1749, 1750, 1769, 1768, 4867, 4868, 4887, 4886
3144, 1750, 1751, 1770, 1769, 4868, 4869, 4888, 4887
3145, 1751, 1752, 1771, 1770, 4869, 4870, 4889, 4888
3146, 1752, 1753, 1772, 1771, 4870, 4871, 4890, 4889
3147, 1753, 1754, 1773, 1772, 4871, 4872, 4891, 4890
3148, 1754, 1755, 1774, 1773, 4872, 4873, 4892, 4891
3149, 1755, 1756, 1775, 1774, 4873, 4874, 4893, 4892
3150, 1756, 1757, 1776, 1775, 4874, 4875, 4894, 4893
3151, 1757, 1758, 1777, 1776, 4875, 4876, 4895, 4894
3152, 1758, 1759, 1778, 1777, 4876, 4877, 4896, 4895
3153, 1759, 1760, 1779, 1778, 4877, 4878, 4897, 4896
3154, 1760, 1761, 1780, 1779, 4878, 4879, 4898, 4897
3155, 1761, 1762, 1781, 1780, 4879, 4880, 4899, 4898
3156, 1762, 1763, 1782, 1781, 4880, 4881, 4900, 4899
3157, 1763, 1764, 1783, 1782, 4881, 4882, 4901, 4900
3158, 1764, 1765, 1784, 1783, 4882, 4883, 4902, 4901
3159, 1765, 1766, 1785, 1784, 4883, 4884, 4903, 4902
3160, 1766,  288,  287, 1785, 4884, 2102, 2103, 4903
3161,  313, 1767, 1786,  314, 2043, 4885, 4904, 2044
3162, 1767, 1768, 1787, 1786, 4885, 4886, 4905, 4904
3163, 1768, 1769, 1788, 1787, 4886, 4887, 4906, 4905
3164, 1769, 1770, 1789, 1788, 4887, 4888, 4907, 4906
3165, 1770, 1771, 1790, 1789, 4888, 4889, 4908, 4907
3166, 1771, 1772, 1791, 1790, 4889, 4890, 4909, 4908
3167, 1772, 1773, 1792, 1791, 4890, 4891, 4910, 4909
3168, 1773, 1774, 1793, 1792, 4891, 4892, 4911, 4910
3169, 1774, 1775, 1794, 1793, 4892, 4893, 4912, 4911
3170, 1775, 1776, 1795, 1794, 4893, 4894, 4913, 4912
3171, 1776, 1777, 1796, 1795, 4894, 4895, 4914, 4913
3172, 1777, 1778, 1797, 1796, 4895, 4896, 4915, 4914
3173, 1778, 1779, 1798, 1797, 4896, 4897, 4916, 4915
3174, 1779, 1780, 1799, 1798, 4897, 4898, 4917, 4916
3175, 1780, 1781, 1800, 1799, 4898, 4899, 4918, 4917
3176, 1781, 1782, 1801, 1800, 4899, 4900, 4919, 4918
3177, 1782, 1783, 1802, 1801, 4900, 4901, 4920, 4919
3178, 1783, 1784, 1803, 1802, 4901, 4902, 4921, 4920
3179, 1784, 1785, 1804, 1803, 4902, 4903, 4922, 4921
3180, 1785,  287,  286, 1804, 4903, 2103, 2104, 4922
3181,  314, 1786, 1805,  315, 2044, 4904, 4923, 2045
3182, 1786, 1787, 1806, 1805, 4904, 4905, 4924, 4923
3183, 1787, 1788, 1807, 1806, 4905, 4906, 4925, 4924
3184, 1788, 1789, 1808, 1807, 4906, 4907, 4926, 4925
3185, 1789, 1790, 1809, 1808, 4907, 4908, 4927, 4926
3186, 1790, 1791, 1810, 1809, 4908, 4909, 4928, 4927
3187, 1791, 1792, 1811, 1810, 4909, 4910, 4929, 4928
3188, 1792, 1793, 1812, 1811, 4910, 4911, 4930, 4929
3189, 1793, 1794, 1813, 1812, 4911, 4912, 4931, 4930
3190, 1794, 1795, 1814, 1813, 4912, 4913, 4932, 4931
3191, 1795, 1796, 1815, 1814, 4913, 4914, 4933, 4932
3192, 1796, 1797, 1816, 1815, 4914, 4915, 4934, 4933
3193, 1797, 1798, 1817, 1816, 4915, 4916, 4935, 4934
3194, 1798, 1799, 1818, 1817, 4916, 4917, 4936, 4935
3195, 1799, 1800, 1819, 1818, 4917, 4918, 4937, 4936
3196, 1800, 1801, 1820, 1819, 4918, 4919, 4938, 4937
3197, 1801, 1802, 1821, 1820, 4919, 4920, 4939, 4938
3198, 1802, 1803, 1822, 1821, 4920, 4921, 4940, 4939
3199, 1803, 1804, 1823, 1822, 4921, 4922, 4941, 4940
3200, 1804,  286,  285, 1823, 4922, 2104, 2105, 4941
3201,  315, 1805, 1824,  316, 2045, 4923, 4942, 2046
3202, 1805, 1806, 1825, 1824, 4923, 4924, 4943, 4942
3203, 1806, 1807, 1826, 1825, 4924, 4925, 4944, 4943
3204, 1807, 1808, 1827, 1826, 4925, 4926, 4945, 4944
3205, 1808, 1809, 1828, 1827, 4926, 4927, 4946, 4945
3206, 1809, 1810, 1829, 1828, 4927, 4928, 4947, 4946
3207, 1810, 1811, 1830, 1829, 4928, 4929, 4948, 4947
3208, 1811, 1812, 1831, 1830, 4929, 4930, 4949, 4948
3209, 1812, 1813, 1832, 1831, 4930, 4931, 4950, 4949
3210, 1813, 1814, 1833, 1832, 4931, 4932, 4951, 4950
3211, 1814, 1815, 1834, 1833, 4932, 4933, 4952, 4951
3212, 1815, 1816, 1835, 1834, 4933, 4934, 4953, 4952
3213, 1816, 1817, 1836, 1835, 4934, 4935, 4954, 4953
3214, 1817, 1818, 1837, 1836, 4935, 4936, 4955, 4954
3215, 1818, 1819, 1838, 1837, 4936, 4937, 4956, 4955
3216, 1819, 1820, 1839, 1838, 4937, 4938, 4957, 4956
3217, 1820, 1821, 1840, 1839, 4938, 4939, 4958, 4957
3218, 1821, 1822, 1841, 1840, 4939, 4940, 4959, 4958
3219, 1822, 1823, 1842, 1841, 4940, 4941, 4960, 4959
3220, 1823,  285,  284, 1842, 4941, 2105, 2106, 4960
3221,  316, 1824, 1843,  317, 2046, 4942, 4961, 2047
3222, 1824, 1825, 1844, 1843, 4942, 4943, 4962, 4961
3223, 1825, 1826, 1845, 1844, 4943, 4944, 4963, 4962
3224, 1826, 1827, 1846, 1845, 4944, 4945, 4964, 4963
3225, 1827, 1828, 1847, 1846, 4945, 4946, 4965, 4964
3226, 1828, 1829, 1848, 1847, 4946, 4947, 4966, 4965
3227, 1829, 1830, 1849, 1848, 4947, 4948, 4967, 4966
3228, 1830, 1831, 1850, 1849, 4948, 4949, 4968, 4967
3229, 1831, 1832, 1851, 1850, 4949, 4950, 4969, 4968
3230, 1832, 1833, 1852, 1851, 4950, 4951, 4970, 4969
3231, 1833, 1834, 1853, 1852, 4951, 4952, 4971, 4970
3232, 1834, 1835, 1854, 1853, 4952, 4953, 4972, 4971
3233, 1835, 1836, 1855, 1854, 4953, 4954, 4973, 4972
3234, 1836, 1837, 1856, 1855, 4954, 4955, 4974, 4973
3235, 1837, 1838, 1857, 1856, 4955, 4956, 4975, 4974
3236, 1838, 1839, 1858, 1857, 4956, 4957, 4976, 4975
3237, 1839, 1840, 1859, 1858, 4957, 4958, 4977, 4976
3238, 1840, 1841, 1860, 1859, 4958, 4959, 4978, 4977
3239, 1841, 1842, 1861, 1860, 4959, 4960, 4979, 4978
3240, 1842,  284,  283, 1861, 4960, 2106, 2107, 4979
3241,  317, 1843, 1862,  318, 2047, 4961, 4980, 2048
3242, 1843, 1844, 1863, 1862, 4961, 4962, 4981, 4980
3243, 1844, 1845, 1864, 1863, 4962, 4963, 4982, 4981
3244, 1845, 1846, 1865, 1864, 4963, 4964, 4983, 4982
3245, 1846, 1847, 1866, 1865, 4964, 4965, 4984, 4983
3246, 1847, 1848, 1867, 1866, 4965, 4966, 4985, 4984
3247, 1848, 1849, 1868, 1867, 4966, 4967, 4986, 4985
3248, 1849, 1850, 1869, 1868, 4967, 4968, 4987, 4986
3249, 1850, 1851, 1870, 1869, 4968, 4969, 4988, 4987
3250, 1851, 1852, 1871, 1870, 4969, 4970, 4989, 4988
3251, 1852, 1853, 1872, 1871, 4970, 4971, 4990, 4989
3252, 1853, 1854, 1873, 1872, 4971, 4972, 4991, 4990
3253, 1854, 1855, 1874, 1873, 4972, 4973, 4992, 4991
3254, 1855, 1856, 1875, 1874, 4973, 4974, 4993, 4992
3255, 1856, 1857, 1876, 1875, 4974, 4975, 4994, 4993
3256, 1857, 1858, 1877, 1876, 4975, 4976, 4995, 4994
3257, 1858, 1859, 1878, 1877, 4976, 4977, 4996, 4995
3258, 1859, 1860, 1879, 1878, 4977, 4978, 4997, 4996
3259, 1860, 1861, 1880, 1879, 4978, 4979, 4998, 4997
3260, 1861,  283,  282, 1880, 4979, 2107, 2108, 4998
3261,  318, 1862, 1881,  319, 2048, 4980, 4999, 2049
3262, 1862, 1863, 1882, 1881, 4980, 4981, 5000, 4999
3263, 1863, 1864, 1883, 1882, 4981, 4982, 5001, 5000
3264, 1864, 1865, 1884, 1883, 4982, 4983, 5002, 5001
3265, 1865, 1866, 1885, 1884, 4983, 4984, 5003, 5002
3266, 1866, 1867, 1886, 1885, 4984, 4985, 5004, 5003
3267, 1867, 1868, 1887, 1886, 4985, 4986, 5005, 5004
3268, 1868, 1869, 1888, 1887, 4986, 4987, 5006, 5005
3269, 1869, 1870, 1889, 1888, 4987, 4988, 5007, 5006
3270, 1870, 1871, 1890, 1889, 4988, 4989, 5008, 5007
3271, 1871, 1872, 1891, 1890, 4989, 4990, 5009, 5008
3272, 1872, 1873, 1892, 1891, 4990, 4991, 5010, 5009
3273, 1873, 1874, 1893, 1892, 4991, 4992, 5011, 5010
3274, 1874, 1875, 1894, 1893, 4992, 4993, 5012, 5011
3275, 1875, 1876, 1895, 1894, 4993, 4994, 5013, 5012
3276, 1876, 1877, 1896, 1895, 4994, 4995, 5014, 5013
3277, 1877, 1878, 1897, 1896, 4995, 4996, 5015, 5014
3278, 1878, 1879, 1898, 1897, 4996, 4997, 5016, 5015
3279, 1879, 1880, 1899, 1898, 4997, 4998, 5017, 5016
3280, 1880,  282,  281, 1899, 4998, 2108, 2109, 5017
3281,  319, 1881, 1900,  320, 2049, 4999, 5018, 2050
3282, 1881, 1882, 1901, 1900, 4999, 5000, 5019, 5018
3283, 1882, 1883, 1902, 1901, 5000, 5001, 5020, 5019
3284, 1883, 1884, 1903, 1902, 5001, 5002, 5021, 5020
3285, 1884, 1885, 1904, 1903, 5002, 5003, 5022, 5021
3286, 1885, 1886, 1905, 1904, 5003, 5004, 5023, 5022
3287, 1886, 1887, 1906, 1905, 5004, 5005, 5024, 5023
3288, 1887, 1888, 1907, 1906, 5005, 5006, 5025, 5024
3289, 1888, 1889, 1908, 1907, 5006, 5007, 5026, 5025
3290, 1889, 1890, 1909, 1908, 5007, 5008, 5027, 5026
3291, 1890, 1891, 1910, 1909, 5008, 5009, 5028, 5027
3292, 1891, 1892, 1911, 1910, 5009, 5010, 5029, 5028
3293, 1892, 1893, 1912, 1911, 5010, 5011, 5030, 5029
3294, 1893, 1894, 1913, 1912, 5011, 5012, 5031, 5030
3295, 1894, 1895, 1914, 1913, 5012, 5013, 5032, 5031
3296, 1895, 1896, 1915, 1914, 5013, 5014, 5033, 5032
3297, 1896, 1897, 1916, 1915, 5014, 5015, 5034, 5033
3298, 1897, 1898, 1917, 1916, 5015, 5016, 5035, 5034
3299, 1898, 1899, 1918, 1917, 5016, 5017, 5036, 5035
3300, 1899,  281,  280, 1918, 5017, 2109, 2110, 5036
3301,  320, 1900, 1919,  321, 2050, 5018, 5037, 2051
3302, 1900, 1901, 1920, 1919, 5018, 5019, 5038, 5037
3303, 1901, 1902, 1921, 1920, 5019, 5020, 5039, 5038
3304, 1902, 1903, 1922, 1921, 5020, 5021, 5040, 5039
3305, 1903, 1904, 1923, 1922, 5021, 5022, 5041, 5040
3306, 1904, 1905, 1924, 1923, 5022, 5023, 5042, 5041
3307, 1905, 1906, 1925, 1924, 5023, 5024, 5043, 5042
3308, 1906, 1907, 1926, 1925, 5024, 5025, 5044, 5043
3309, 1907, 1908, 1927, 1926, 5025, 5026, 5045, 5044
3310, 1908, 1909, 1928, 1927, 5026, 5027, 5046, 5045
3311, 1909, 1910, 1929, 1928, 5027, 5028, 5047, 5046
3312, 1910, 1911, 1930, 1929, 5028, 5029, 5048, 5047
3313, 1911, 1912, 1931, 1930, 5029, 5030, 5049, 5048
3314, 1912, 1913, 1932, 1931, 5030, 5031, 5050, 5049
3315, 1913, 1914, 1933, 1932, 5031, 5032, 5051, 5050
3316, 1914, 1915, 1934, 1933, 5032, 5033, 5052, 5051
3317, 1915, 1916, 1935, 1934, 5033, 5034, 5053, 5052
3318, 1916, 1917, 1936, 1935, 5034, 5035, 5054, 5053
3319, 1917, 1918, 1937, 1936, 5035, 5036, 5055, 5054
3320, 1918,  280,  279, 1937, 5036, 2110, 2111, 5055
3321,  321, 1919, 1938,  322, 2051, 5037, 5056, 2052
3322, 1919, 1920, 1939, 1938, 5037, 5038, 5057, 5056
3323, 1920, 1921, 1940, 1939, 5038, 5039, 5058, 5057
3324, 1921, 1922, 1941, 1940, 5039, 5040, 5059, 5058
3325, 1922, 1923, 1942, 1941, 5040, 5041, 5060, 5059
3326, 1923, 1924, 1943, 1942, 5041, 5042, 5061, 5060
3327, 1924, 1925, 1944, 1943, 5042, 5043, 5062, 5061
3328, 1925, 1926, 1945, 1944, 5043, 5044, 5063, 5062
3329, 1926, 1927, 1946, 1945, 5044, 5045, 5064, 5063
3330, 1927, 1928, 1947, 1946, 5045, 5046, 5065, 5064
3331, 1928, 1929, 1948, 1947, 5046, 5047, 5066, 5065
3332, 1929, 1930, 1949, 1948, 5047, 5048, 5067, 5066
3333, 1930, 1931, 1950, 1949, 5048, 5049, 5068, 5067
3334, 1931, 1932, 1951, 1950, 5049, 5050, 5069, 5068
3335, 1932, 1933, 1952, 1951, 5050, 5051, 5070, 5069
3336, 1933, 1934, 1953, 1952, 5051, 5052, 5071, 5070
3337, 1934, 1935, 1954, 1953, 5052, 5053, 5072, 5071
3338, 1935, 1936, 1955, 1954, 5053, 5054, 5073, 5072
3339, 1936, 1937, 1956, 1955, 5054, 5055, 5074, 5073
3340, 1937,  279,  278, 1956, 5055, 2111, 2112, 5074
3341,  322, 1938, 1957,  323, 2052, 5056, 5075, 2053
3342, 1938, 1939, 1958, 1957, 5056, 5057, 5076, 5075
3343, 1939, 1940, 1959, 1958, 5057, 5058, 5077, 5076
3344, 1940, 1941, 1960, 1959, 5058, 5059, 5078, 5077
3345, 1941, 1942, 1961, 1960, 5059, 5060, 5079, 5078
3346, 1942, 1943, 1962, 1961, 5060, 5061, 5080, 5079
3347, 1943, 1944, 1963, 1962, 5061, 5062, 5081, 5080
3348, 1944, 1945, 1964, 1963, 5062, 5063, 5082, 5081
3349, 1945, 1946, 1965, 1964, 5063, 5064, 5083, 5082
3350, 1946, 1947, 1966, 1965, 5064, 5065, 5084, 5083
3351, 1947, 1948, 1967, 1966, 5065, 5066, 5085, 5084
3352, 1948, 1949, 1968, 1967, 5066, 5067, 5086, 5085
3353, 1949, 1950, 1969, 1968, 5067, 5068, 5087, 5086
3354, 1950, 1951, 1970, 1969, 5068, 5069, 5088, 5087
3355, 1951, 1952, 1971, 1970, 5069, 5070, 5089, 5088
3356, 1952, 1953, 1972, 1971, 5070, 5071, 5090, 5089
3357, 1953, 1954, 1973, 1972, 5071, 5072, 5091, 5090
3358, 1954, 1955, 1974, 1973, 5072, 5073, 5092, 5091
3359, 1955, 1956, 1975, 1974, 5073, 5074, 5093, 5092
3360, 1956,  278,  277, 1975, 5074, 2112, 2113, 5093
3361,  323, 1957, 1976,  324, 2053, 5075, 5094, 2054
3362, 1957, 1958, 1977, 1976, 5075, 5076, 5095, 5094
3363, 1958, 1959, 1978, 1977, 5076, 5077, 5096, 5095
3364, 1959, 1960, 1979, 1978, 5077, 5078, 5097, 5096
3365, 1960, 1961, 1980, 1979, 5078, 5079, 5098, 5097
3366, 1961, 1962, 1981, 1980, 5079, 5080, 5099, 5098
3367, 1962, 1963, 1982, 1981, 5080, 5081, 5100, 5099
3368, 1963, 1964, 1983, 1982, 5081, 5082, 5101, 5100
3369, 1964, 1965, 1984, 1983, 5082, 5083, 5102, 5101
3370, 1965, 1966, 1985, 1984, 5083, 5084, 5103, 5102
3371, 1966, 1967, 1986, 1985, 5084, 5085, 5104, 5103
3372, 1967, 1968, 1987, 1986, 5085, 5086, 5105, 5104
3373, 1968, 1969, 1988, 1987, 5086, 5087, 5106, 5105
3374, 1969, 1970, 1989, 1988, 5087, 5088, 5107, 5106
3375, 1970, 1971, 1990, 1989, 5088, 5089, 5108, 5107
3376, 1971, 1972, 1991, 1990, 5089, 5090, 5109, 5108
3377, 1972, 1973, 1992, 1991, 5090, 5091, 5110, 5109
3378, 1973, 1974, 1993, 1992, 5091, 5092, 5111, 5110
3379, 1974, 1975, 1994, 1993, 5092, 5093, 5112, 5111
3380, 1975,  277,  276, 1994, 5093, 2113, 2114, 5112
3381,  324, 1976,  291,   16, 2054, 5094, 2172,  328
3382, 1976, 1977,  292,  291, 5094, 5095, 2173, 2172
3383, 1977, 1978,  293,  292, 5095, 5096, 2174, 2173
3384, 1978, 1979,  294,  293, 5096, 5097, 2175, 2174
3385, 1979, 1980,  295,  294, 5097, 5098, 2176, 2175
3386, 1980, 1981,  296,  295, 5098, 5099, 2177, 2176
3387, 1981, 1982,  297,  296, 5099, 5100, 2178, 2177
3388, 1982, 1983,  298,  297, 5100, 5101, 2179, 2178
3389, 1983, 1984,  299,  298, 5101, 5102, 2180, 2179
3390, 1984, 1985,  300,  299, 5102, 5103, 2181, 2180
3391, 1985, 1986,  301,  300, 5103, 5104, 2182, 2181
3392, 1986, 1987,  302,  301, 5104, 5105, 2183, 2182
3393, 1987, 1988,  303,  302, 5105, 5106, 2184, 2183
3394, 1988, 1989,  304,  303, 5106, 5107, 2185, 2184
3395, 1989, 1990,  305,  304, 5107, 5108, 2186, 2185
3396, 1990, 1991,  306,  305, 5108, 5109, 2187, 2186
3397, 1991, 1992,  307,  306, 5109, 5110, 2188, 2187
3398, 1992, 1993,  308,  307, 5110, 5111, 2189, 2188
3399, 1993, 1994,  309,  308, 5111, 5112, 2190, 2189
3400, 1994,  276,   15,  309, 5112, 2114,  329, 2190
3401,  325, 2115, 5113, 2533,   14,  260, 2191,  369
3402, 2115, 2116, 5114, 5113,  260,  259, 2192, 2191
3403, 2116, 2117, 5115, 5114,  259,  258, 2193, 2192
3404, 2117, 2118, 5116, 5115,  258,  257, 2194, 2193
3405, 2118, 2119, 5117, 5116,  257,  256, 2195, 2194
3406, 2119, 2120, 5118, 5117,  256,  255, 2196, 2195
3407, 2120, 2121, 5119, 5118,  255,  254, 2197, 2196
3408, 2121, 2122, 5120, 5119,  254,  253, 2198, 2197
3409, 2122, 2123, 5121, 5120,  253,  252, 2199, 2198
3410, 2123, 2124, 5122, 5121,  252,  251, 2200, 2199
3411, 2124, 2125, 5123, 5122,  251,  250, 2201, 2200
3412, 2125, 2126, 5124, 5123,  250,  249, 2202, 2201
3413, 2126, 2127, 5125, 5124,  249,  248, 2203, 2202
3414, 2127, 2128, 5126, 5125,  248,  247, 2204, 2203
3415, 2128, 2129, 5127, 5126,  247,  246, 2205, 2204
3416, 2129, 2130, 5128, 5127,  246,  245, 2206, 2205
3417, 2130, 2131, 5129, 5128,  245,  244, 2207, 2206
3418, 2131, 2132, 5130, 5129,  244,  243, 2208, 2207
3419, 2132, 2133, 5131, 5130,  243,  242, 2209, 2208
3420, 2133,  332, 2569, 5131,  242,   13,  333, 2209
3421, 2533, 5113, 5132, 2534,  369, 2191, 2210,  368
3422, 5113, 5114, 5133, 5132, 2191, 2192, 2211, 2210
3423, 5114, 5115, 5134, 5133, 2192, 2193, 2212, 2211
3424, 5115, 5116, 5135, 5134, 2193, 2194, 2213, 2212
3425, 5116, 5117, 5136, 5135, 2194, 2195, 2214, 2213
3426, 5117, 5118, 5137, 5136, 2195, 2196, 2215, 2214
3427, 5118, 5119, 5138, 5137, 2196, 2197, 2216, 2215
3428, 5119, 5120, 5139, 5138, 2197, 2198, 2217, 2216
3429, 5120, 5121, 5140, 5139, 2198, 2199, 2218, 2217
3430, 5121, 5122, 5141, 5140, 2199, 2200, 2219, 2218
3431, 5122, 5123, 5142, 5141, 2200, 2201, 2220, 2219
3432, 5123, 5124, 5143, 5142, 2201, 2202, 2221, 2220
3433, 5124, 5125, 5144, 5143, 2202, 2203, 2222, 2221
3434, 5125, 5126, 5145, 5144, 2203, 2204, 2223, 2222
3435, 5126, 5127, 5146, 5145, 2204, 2205, 2224, 2223
3436, 5127, 5128, 5147, 5146, 2205, 2206, 2225, 2224
3437, 5128, 5129, 5148, 5147, 2206, 2207, 2226, 2225
3438, 5129, 5130, 5149, 5148, 2207, 2208, 2227, 2226
3439, 5130, 5131, 5150, 5149, 2208, 2209, 2228, 2227
3440, 5131, 2569, 2570, 5150, 2209,  333,  334, 2228
3441, 2534, 5132, 5151, 2535,  368, 2210, 2229,  367
3442, 5132, 5133, 5152, 5151, 2210, 2211, 2230, 2229
3443, 5133, 5134, 5153, 5152, 2211, 2212, 2231, 2230
3444, 5134, 5135, 5154, 5153, 2212, 2213, 2232, 2231
3445, 5135, 5136, 5155, 5154, 2213, 2214, 2233, 2232
3446, 5136, 5137, 5156, 5155, 2214, 2215, 2234, 2233
3447, 5137, 5138, 5157, 5156, 2215, 2216, 2235, 2234
3448, 5138, 5139, 5158, 5157, 2216, 2217, 2236, 2235
3449, 5139, 5140, 5159, 5158, 2217, 2218, 2237, 2236
3450, 5140, 5141, 5160, 5159, 2218, 2219, 2238, 2237
3451, 5141, 5142, 5161, 5160, 2219, 2220, 2239, 2238
3452, 5142, 5143, 5162, 5161, 2220, 2221, 2240, 2239
3453, 5143, 5144, 5163, 5162, 2221, 2222, 2241, 2240
3454, 5144, 5145, 5164, 5163, 2222, 2223, 2242, 2241
3455, 5145, 5146, 5165, 5164, 2223, 2224, 2243, 2242
3456, 5146, 5147, 5166, 5165, 2224, 2225, 2244, 2243
3457, 5147, 5148, 5167, 5166, 2225, 2226, 2245, 2244
3458, 5148, 5149, 5168, 5167, 2226, 2227, 2246, 2245
3459, 5149, 5150, 5169, 5168, 2227, 2228, 2247, 2246
3460, 5150, 2570, 2571, 5169, 2228,  334,  335, 2247
3461, 2535, 5151, 5170, 2536,  367, 2229, 2248,  366
3462, 5151, 5152, 5171, 5170, 2229, 2230, 2249, 2248
3463, 5152, 5153, 5172, 5171, 2230, 2231, 2250, 2249
3464, 5153, 5154, 5173, 5172, 2231, 2232, 2251, 2250
3465, 5154, 5155, 5174, 5173, 2232, 2233, 2252, 2251
3466, 5155, 5156, 5175, 5174, 2233, 2234, 2253, 2252
3467, 5156, 5157, 5176, 5175, 2234, 2235, 2254, 2253
3468, 5157, 5158, 5177, 5176, 2235, 2236, 2255, 2254
3469, 5158, 5159, 5178, 5177, 2236, 2237, 2256, 2255
3470, 5159, 5160, 5179, 5178, 2237, 2238, 2257, 2256
3471, 5160, 5161, 5180, 5179, 2238, 2239, 2258, 2257
3472, 5161, 5162, 5181, 5180, 2239, 2240, 2259, 2258
3473, 5162, 5163, 5182, 5181, 2240, 2241, 2260, 2259
3474, 5163, 5164, 5183, 5182, 2241, 2242, 2261, 2260
3475, 5164, 5165, 5184, 5183, 2242, 2243, 2262, 2261
3476, 5165, 5166, 5185, 5184, 2243, 2244, 2263, 2262
3477, 5166, 5167, 5186, 5185, 2244, 2245, 2264, 2263
3478, 5167, 5168, 5187, 5186, 2245, 2246, 2265, 2264
3479, 5168, 5169, 5188, 5187, 2246, 2247, 2266, 2265
3480, 5169, 2571, 2572, 5188, 2247,  335,  336, 2266
3481, 2536, 5170, 5189, 2537,  366, 2248, 2267,  365
3482, 5170, 5171, 5190, 5189, 2248, 2249, 2268, 2267
3483, 5171, 5172, 5191, 5190, 2249, 2250, 2269, 2268
3484, 5172, 5173, 5192, 5191, 2250, 2251, 2270, 2269
3485, 5173, 5174, 5193, 5192, 2251, 2252, 2271, 2270
3486, 5174, 5175, 5194, 5193, 2252, 2253, 2272, 2271
3487, 5175, 5176, 5195, 5194, 2253, 2254, 2273, 2272
3488, 5176, 5177, 5196, 5195, 2254, 2255, 2274, 2273
3489, 5177, 5178, 5197, 5196, 2255, 2256, 2275, 2274
3490, 5178, 5179, 5198, 5197, 2256, 2257, 2276, 2275
3491, 5179, 5180, 5199, 5198, 2257, 2258, 2277, 2276
3492, 5180, 5181, 5200, 5199, 2258, 2259, 2278, 2277
3493, 5181, 5182, 5201, 5200, 2259, 2260, 2279, 2278
3494, 5182, 5183, 5202, 5201, 2260, 2261, 2280, 2279
3495, 5183, 5184, 5203, 5202, 2261, 2262, 2281, 2280
3496, 5184, 5185, 5204, 5203, 2262, 2263, 2282, 2281
3497, 5185, 5186, 5205, 5204, 2263, 2264, 2283, 2282
3498, 5186, 5187, 5206, 5205, 2264, 2265, 2284, 2283
3499, 5187, 5188, 5207, 5206, 2265, 2266, 2285, 2284
3500, 5188, 2572, 2573, 5207, 2266,  336,  337, 2285
3501, 2537, 5189, 5208, 2538,  365, 2267, 2286,  364
3502, 5189, 5190, 5209, 5208, 2267, 2268, 2287, 2286
3503, 5190, 5191, 5210, 5209, 2268, 2269, 2288, 2287
3504, 5191, 5192, 5211, 5210, 2269, 2270, 2289, 2288
3505, 5192, 5193, 5212, 5211, 2270, 2271, 2290, 2289
3506, 5193, 5194, 5213, 5212, 2271, 2272, 2291, 2290
3507, 5194, 5195, 5214, 5213, 2272, 2273, 2292, 2291
3508, 5195, 5196, 5215, 5214, 2273, 2274, 2293, 2292
3509, 5196, 5197, 5216, 5215, 2274, 2275, 2294, 2293
3510, 5197, 5198, 5217, 5216, 2275, 2276, 2295, 2294
3511, 5198, 5199, 5218, 5217, 2276, 2277, 2296, 2295
3512, 5199, 5200, 5219, 5218, 2277, 2278, 2297, 2296
3513, 5200, 5201, 5220, 5219, 2278, 2279, 2298, 2297
3514, 5201, 5202, 5221, 5220, 2279, 2280, 2299, 2298
3515, 5202, 5203, 5222, 5221, 2280, 2281, 2300, 2299
3516, 5203, 5204, 5223, 5222, 2281, 2282, 2301, 2300
3517, 5204, 5205, 5224, 5223, 2282, 2283, 2302, 2301
3518, 5205, 5206, 5225, 5224, 2283, 2284, 2303, 2302
3519, 5206, 5207, 5226, 5225, 2284, 2285, 2304, 2303
3520, 5207, 2573, 2574, 5226, 2285,  337,  338, 2304
3521, 2538, 5208, 5227, 2539,  364, 2286, 2305,  363
3522, 5208, 5209, 5228, 5227, 2286, 2287, 2306, 2305
3523, 5209, 5210, 5229, 5228, 2287, 2288, 2307, 2306
3524, 5210, 5211, 5230, 5229, 2288, 2289, 2308, 2307
3525, 5211, 5212, 5231, 5230, 2289, 2290, 2309, 2308
3526, 5212, 5213, 5232, 5231, 2290, 2291, 2310, 2309
3527, 5213, 5214, 5233, 5232, 2291, 2292, 2311, 2310
3528, 5214, 5215, 5234, 5233, 2292, 2293, 2312, 2311
3529, 5215, 5216, 5235, 5234, 2293, 2294, 2313, 2312
3530, 5216, 5217, 5236, 5235, 2294, 2295, 2314, 2313
3531, 5217, 5218, 5237, 5236, 2295, 2296, 2315, 2314
3532, 5218, 5219, 5238, 5237, 2296, 2297, 2316, 2315
3533, 5219, 5220, 5239, 5238, 2297, 2298, 2317, 2316
3534, 5220, 5221, 5240, 5239, 2298, 2299, 2318, 2317
3535, 5221, 5222, 5241, 5240, 2299, 2300, 2319, 2318
3536, 5222, 5223, 5242, 5241, 2300, 2301, 2320, 2319
3537, 5223, 5224, 5243, 5242, 2301, 2302, 2321, 2320
3538, 5224, 5225, 5244, 5243, 2302, 2303, 2322, 2321
3539, 5225, 5226, 5245, 5244, 2303, 2304, 2323, 2322
3540, 5226, 2574, 2575, 5245, 2304,  338,  339, 2323
3541, 2539, 5227, 5246, 2540,  363, 2305, 2324,  362
3542, 5227, 5228, 5247, 5246, 2305, 2306, 2325, 2324
3543, 5228, 5229, 5248, 5247, 2306, 2307, 2326, 2325
3544, 5229, 5230, 5249, 5248, 2307, 2308, 2327, 2326
3545, 5230, 5231, 5250, 5249, 2308, 2309, 2328, 2327
3546, 5231, 5232, 5251, 5250, 2309, 2310, 2329, 2328
3547, 5232, 5233, 5252, 5251, 2310, 2311, 2330, 2329
3548, 5233, 5234, 5253, 5252, 2311, 2312, 2331, 2330
3549, 5234, 5235, 5254, 5253, 2312, 2313, 2332, 2331
3550, 5235, 5236, 5255, 5254, 2313, 2314, 2333, 2332
3551, 5236, 5237, 5256, 5255, 2314, 2315, 2334, 2333
3552, 5237, 5238, 5257, 5256, 2315, 2316, 2335, 2334
3553, 5238, 5239, 5258, 5257, 2316, 2317, 2336, 2335
3554, 5239, 5240, 5259, 5258, 2317, 2318, 2337, 2336
3555, 5240, 5241, 5260, 5259, 2318, 2319, 2338, 2337
3556, 5241, 5242, 5261, 5260, 2319, 2320, 2339, 2338
3557, 5242, 5243, 5262, 5261, 2320, 2321, 2340, 2339
3558, 5243, 5244, 5263, 5262, 2321, 2322, 2341, 2340
3559, 5244, 5245, 5264, 5263, 2322, 2323, 2342, 2341
3560, 5245, 2575, 2576, 5264, 2323,  339,  340, 2342
3561, 2540, 5246, 5265, 2541,  362, 2324, 2343,  361
3562, 5246, 5247, 5266, 5265, 2324, 2325, 2344, 2343
3563, 5247, 5248, 5267, 5266, 2325, 2326, 2345, 2344
3564, 5248, 5249, 5268, 5267, 2326, 2327, 2346, 2345
3565, 5249, 5250, 5269, 5268, 2327, 2328, 2347, 2346
3566, 5250, 5251, 5270, 5269, 2328, 2329, 2348, 2347
3567, 5251, 5252, 5271, 5270, 2329, 2330, 2349, 2348
3568, 5252, 5253, 5272, 5271, 2330, 2331, 2350, 2349
3569, 5253, 5254, 5273, 5272, 2331, 2332, 2351, 2350
3570, 5254, 5255, 5274, 5273, 2332, 2333, 2352, 2351
3571, 5255, 5256, 5275, 5274, 2333, 2334, 2353, 2352
3572, 5256, 5257, 5276, 5275, 2334, 2335, 2354, 2353
3573, 5257, 5258, 5277, 5276, 2335, 2336, 2355, 2354
3574, 5258, 5259, 5278, 5277, 2336, 2337, 2356, 2355
3575, 5259, 5260, 5279, 5278, 2337, 2338, 2357, 2356
3576, 5260, 5261, 5280, 5279, 2338, 2339, 2358, 2357
3577, 5261, 5262, 5281, 5280, 2339, 2340, 2359, 2358
3578, 5262, 5263, 5282, 5281, 2340, 2341, 2360, 2359
3579, 5263, 5264, 5283, 5282, 2341, 2342, 2361, 2360
3580, 5264, 2576, 2577, 5283, 2342,  340,  341, 2361
3581, 2541, 5265, 2605,  407,  361, 2343,  360,   18
3582, 5265, 5266, 2606, 2605, 2343, 2344,  359,  360
3583, 5266, 5267, 2607, 2606, 2344, 2345,  358,  359
3584, 5267, 5268, 2608, 2607, 2345, 2346,  357,  358
3585, 5268, 5269, 2609, 2608, 2346, 2347,  356,  357
3586, 5269, 5270, 2610, 2609, 2347, 2348,  355,  356
3587, 5270, 5271, 2611, 2610, 2348, 2349,  354,  355
3588, 5271, 5272, 2612, 2611, 2349, 2350,  353,  354
3589, 5272, 5273, 2613, 2612, 2350, 2351,  352,  353
3590, 5273, 5274, 2614, 2613, 2351, 2352,  351,  352
3591, 5274, 5275, 2615, 2614, 2352, 2353,  350,  351
3592, 5275, 5276, 2616, 2615, 2353, 2354,  349,  350
3593, 5276, 5277, 2617, 2616, 2354, 2355,  348,  349
3594, 5277, 5278, 2618, 2617, 2355, 2356,  347,  348
3595, 5278, 5279, 2619, 2618, 2356, 2357,  346,  347
3596, 5279, 5280, 2620, 2619, 2357, 2358,  345,  346
3597, 5280, 5281, 2621, 2620, 2358, 2359,  344,  345
3598, 5281, 5282, 2622, 2621, 2359, 2360,  343,  344
3599, 5282, 5283, 2623, 2622, 2360, 2361,  342,  343
3600, 5283, 2577,  414, 2623, 2361,  341,   17,  342
3601,  326, 2134, 5284, 2542,  325, 2115, 5113, 2533
3602, 2134, 2135, 5285, 5284, 2115, 2116, 5114, 5113
3603, 2135, 2136, 5286, 5285, 2116, 2117, 5115, 5114
3604, 2136, 2137, 5287, 5286, 2117, 2118, 5116, 5115
3605, 2137, 2138, 5288, 5287, 2118, 2119, 5117, 5116
3606, 2138, 2139, 5289, 5288, 2119, 2120, 5118, 5117
3607, 2139, 2140, 5290, 5289, 2120, 2121, 5119, 5118
3608, 2140, 2141, 5291, 5290, 2121, 2122, 5120, 5119
3609, 2141, 2142, 5292, 5291, 2122, 2123, 5121, 5120
3610, 2142, 2143, 5293, 5292, 2123, 2124, 5122, 5121
3611, 2143, 2144, 5294, 5293, 2124, 2125, 5123, 5122
3612, 2144, 2145, 5295, 5294, 2125, 2126, 5124, 5123
3613, 2145, 2146, 5296, 5295, 2126, 2127, 5125, 5124
3614, 2146, 2147, 5297, 5296, 2127, 2128, 5126, 5125
3615, 2147, 2148, 5298, 5297, 2128, 2129, 5127, 5126
3616, 2148, 2149, 5299, 5298, 2129, 2130, 5128, 5127
3617, 2149, 2150, 5300, 5299, 2130, 2131, 5129, 5128
3618, 2150, 2151, 5301, 5300, 2131, 2132, 5130, 5129
3619, 2151, 2152, 5302, 5301, 2132, 2133, 5131, 5130
3620, 2152,  331, 2578, 5302, 2133,  332, 2569, 5131
3621, 2542, 5284, 5303, 2543, 2533, 5113, 5132, 2534
3622, 5284, 5285, 5304, 5303, 5113, 5114, 5133, 5132
3623, 5285, 5286, 5305, 5304, 5114, 5115, 5134, 5133
3624, 5286, 5287, 5306, 5305, 5115, 5116, 5135, 5134
3625, 5287, 5288, 5307, 5306, 5116, 5117, 5136, 5135
3626, 5288, 5289, 5308, 5307, 5117, 5118, 5137, 5136
3627, 5289, 5290, 5309, 5308, 5118, 5119, 5138, 5137
3628, 5290, 5291, 5310, 5309, 5119, 5120, 5139, 5138
3629, 5291, 5292, 5311, 5310, 5120, 5121, 5140, 5139
3630, 5292, 5293, 5312, 5311, 5121, 5122, 5141, 5140
3631, 5293, 5294, 5313, 5312, 5122, 5123, 5142, 5141
3632, 5294, 5295, 5314, 5313, 5123, 5124, 5143, 5142
3633, 5295, 5296, 5315, 5314, 5124, 5125, 5144, 5143
3634, 5296, 5297, 5316, 5315, 5125, 5126, 5145, 5144
3635, 5297, 5298, 5317, 5316, 5126, 5127, 5146, 5145
3636, 5298, 5299, 5318, 5317, 5127, 5128, 5147, 5146
3637, 5299, 5300, 5319, 5318, 5128, 5129, 5148, 5147
3638, 5300, 5301, 5320, 5319, 5129, 5130, 5149, 5148
3639, 5301, 5302, 5321, 5320, 5130, 5131, 5150, 5149
3640, 5302, 2578, 2579, 5321, 5131, 2569, 2570, 5150
3641, 2543, 5303, 5322, 2544, 2534, 5132, 5151, 2535
3642, 5303, 5304, 5323, 5322, 5132, 5133, 5152, 5151
3643, 5304, 5305, 5324, 5323, 5133, 5134, 5153, 5152
3644, 5305, 5306, 5325, 5324, 5134, 5135, 5154, 5153
3645, 5306, 5307, 5326, 5325, 5135, 5136, 5155, 5154
3646, 5307, 5308, 5327, 5326, 5136, 5137, 5156, 5155
3647, 5308, 5309, 5328, 5327, 5137, 5138, 5157, 5156
3648, 5309, 5310, 5329, 5328, 5138, 5139, 5158, 5157
3649, 5310, 5311, 5330, 5329, 5139, 5140, 5159, 5158
3650, 5311, 5312, 5331, 5330, 5140, 5141, 5160, 5159
3651, 5312, 5313, 5332, 5331, 5141, 5142, 5161, 5160
3652, 5313, 5314, 5333, 5332, 5142, 5143, 5162, 5161
3653, 5314, 5315, 5334, 5333, 5143, 5144, 5163, 5162
3654, 5315, 5316, 5335, 5334, 5144, 5145, 5164, 5163
3655, 5316, 5317, 5336, 5335, 5145, 5146, 5165, 5164
3656, 5317, 5318, 5337, 5336, 5146, 5147, 5166, 5165
3657, 5318, 5319, 5338, 5337, 5147, 5148, 5167, 5166
3658, 5319, 5320, 5339, 5338, 5148, 5149, 5168, 5167
3659, 5320, 5321, 5340, 5339, 5149, 5150, 5169, 5168
3660, 5321, 2579, 2580, 5340, 5150, 2570, 2571, 5169
3661, 2544, 5322, 5341, 2545, 2535, 5151, 5170, 2536
3662, 5322, 5323, 5342, 5341, 5151, 5152, 5171, 5170
3663, 5323, 5324, 5343, 5342, 5152, 5153, 5172, 5171
3664, 5324, 5325, 5344, 5343, 5153, 5154, 5173, 5172
3665, 5325, 5326, 5345, 5344, 5154, 5155, 5174, 5173
3666, 5326, 5327, 5346, 5345, 5155, 5156, 5175, 5174
3667, 5327, 5328, 5347, 5346, 5156, 5157, 5176, 5175
3668, 5328, 5329, 5348, 5347, 5157, 5158, 5177, 5176
3669, 5329, 5330, 5349, 5348, 5158, 5159, 5178, 5177
3670, 5330, 5331, 5350, 5349, 5159, 5160, 5179, 5178
3671, 5331, 5332, 5351, 5350, 5160, 5161, 5180, 5179
3672, 5332, 5333, 5352, 5351, 5161, 5162, 5181, 5180
3673, 5333, 5334, 5353, 5352, 5162, 5163, 5182, 5181
3674, 5334, 5335, 5354, 5353, 5163, 5164, 5183, 5182
3675, 5335, 5336, 5355, 5354, 5164, 5165, 5184, 5183
3676, 5336, 5337, 5356, 5355, 5165, 5166, 5185, 5184
3677, 5337, 5338, 5357, 5356, 5166, 5167, 5186, 5185
3678, 5338, 5339, 5358, 5357, 5167, 5168, 5187, 5186
3679, 5339, 5340, 5359, 5358, 5168, 5169, 5188, 5187
3680, 5340, 2580, 2581, 5359, 5169, 2571, 2572, 5188
3681, 2545, 5341, 5360, 2546, 2536, 5170, 5189, 2537
3682, 5341, 5342, 5361, 5360, 5170, 5171, 5190, 5189
3683, 5342, 5343, 5362, 5361, 5171, 5172, 5191, 5190
3684, 5343, 5344, 5363, 5362, 5172, 5173, 5192, 5191
3685, 5344, 5345, 5364, 5363, 5173, 5174, 5193, 5192
3686, 5345, 5346, 5365, 5364, 5174, 5175, 5194, 5193
3687, 5346, 5347, 5366, 5365, 5175, 5176, 5195, 5194
3688, 5347, 5348, 5367, 5366, 5176, 5177, 5196, 5195
3689, 5348, 5349, 5368, 5367, 5177, 5178, 5197, 5196
3690, 5349, 5350, 5369, 5368, 5178, 5179, 5198, 5197
3691, 5350, 5351, 5370, 5369, 5179, 5180, 5199, 5198
3692, 5351, 5352, 5371, 5370, 5180, 5181, 5200, 5199
3693, 5352, 5353, 5372, 5371, 5181, 5182, 5201, 5200
3694, 5353, 5354, 5373, 5372, 5182, 5183, 5202, 5201
3695, 5354, 5355, 5374, 5373, 5183, 5184, 5203, 5202
3696, 5355, 5356, 5375, 5374, 5184, 5185, 5204, 5203
3697, 5356, 5357, 5376, 5375, 5185, 5186, 5205, 5204
3698, 5357, 5358, 5377, 5376, 5186, 5187, 5206, 5205
3699, 5358, 5359, 5378, 5377, 5187, 5188, 5207, 5206
3700, 5359, 2581, 2582, 5378, 5188, 2572, 2573, 5207
3701, 2546, 5360, 5379, 2547, 2537, 5189, 5208, 2538
3702, 5360, 5361, 5380, 5379, 5189, 5190, 5209, 5208
3703, 5361, 5362, 5381, 5380, 5190, 5191, 5210, 5209
3704, 5362, 5363, 5382, 5381, 5191, 5192, 5211, 5210
3705, 5363, 5364, 5383, 5382, 5192, 5193, 5212, 5211
3706, 5364, 5365, 5384, 5383, 5193, 5194, 5213, 5212
3707, 5365, 5366, 5385, 5384, 5194, 5195, 5214, 5213
3708, 5366, 5367, 5386, 5385, 5195, 5196, 5215, 5214
3709, 5367, 5368, 5387, 5386, 5196, 5197, 5216, 5215
3710, 5368, 5369, 5388, 5387, 5197, 5198, 5217, 5216
3711, 5369, 5370, 5389, 5388, 5198, 5199, 5218, 5217
3712, 5370, 5371, 5390, 5389, 5199, 5200, 5219, 5218
3713, 5371, 5372, 5391, 5390, 5200, 5201, 5220, 5219
3714, 5372, 5373, 5392, 5391, 5201, 5202, 5221, 5220
3715, 5373, 5374, 5393, 5392, 5202, 5203, 5222, 5221
3716, 5374, 5375, 5394, 5393, 5203, 5204, 5223, 5222
3717, 5375, 5376, 5395, 5394, 5204, 5205, 5224, 5223
3718, 5376, 5377, 5396, 5395, 5205, 5206, 5225, 5224
3719, 5377, 5378, 5397, 5396, 5206, 5207, 5226, 5225
3720, 5378, 2582, 2583, 5397, 5207, 2573, 2574, 5226
3721, 2547, 5379, 5398, 2548, 2538, 5208, 5227, 2539
3722, 5379, 5380, 5399, 5398, 5208, 5209, 5228, 5227
3723, 5380, 5381, 5400, 5399, 5209, 5210, 5229, 5228
3724, 5381, 5382, 5401, 5400, 5210, 5211, 5230, 5229
3725, 5382, 5383, 5402, 5401, 5211, 5212, 5231, 5230
3726, 5383, 5384, 5403, 5402, 5212, 5213, 5232, 5231
3727, 5384, 5385, 5404, 5403, 5213, 5214, 5233, 5232
3728, 5385, 5386, 5405, 5404, 5214, 5215, 5234, 5233
3729, 5386, 5387, 5406, 5405, 5215, 5216, 5235, 5234
3730, 5387, 5388, 5407, 5406, 5216, 5217, 5236, 5235
3731, 5388, 5389, 5408, 5407, 5217, 5218, 5237, 5236
3732, 5389, 5390, 5409, 5408, 5218, 5219, 5238, 5237
3733, 5390, 5391, 5410, 5409, 5219, 5220, 5239, 5238
3734, 5391, 5392, 5411, 5410, 5220, 5221, 5240, 5239
3735, 5392, 5393, 5412, 5411, 5221, 5222, 5241, 5240
3736, 5393, 5394, 5413, 5412, 5222, 5223, 5242, 5241
3737, 5394, 5395, 5414, 5413, 5223, 5224, 5243, 5242
3738, 5395, 5396, 5415, 5414, 5224, 5225, 5244, 5243
3739, 5396, 5397, 5416, 5415, 5225, 5226, 5245, 5244
3740, 5397, 2583, 2584, 5416, 5226, 2574, 2575, 5245
3741, 2548, 5398, 5417, 2549, 2539, 5227, 5246, 2540
3742, 5398, 5399, 5418, 5417, 5227, 5228, 5247, 5246
3743, 5399, 5400, 5419, 5418, 5228, 5229, 5248, 5247
3744, 5400, 5401, 5420, 5419, 5229, 5230, 5249, 5248
3745, 5401, 5402, 5421, 5420, 5230, 5231, 5250, 5249
3746, 5402, 5403, 5422, 5421, 5231, 5232, 5251, 5250
3747, 5403, 5404, 5423, 5422, 5232, 5233, 5252, 5251
3748, 5404, 5405, 5424, 5423, 5233, 5234, 5253, 5252
3749, 5405, 5406, 5425, 5424, 5234, 5235, 5254, 5253
3750, 5406, 5407, 5426, 5425, 5235, 5236, 5255, 5254
3751, 5407, 5408, 5427, 5426, 5236, 5237, 5256, 5255
3752, 5408, 5409, 5428, 5427, 5237, 5238, 5257, 5256
3753, 5409, 5410, 5429, 5428, 5238, 5239, 5258, 5257
3754, 5410, 5411, 5430, 5429, 5239, 5240, 5259, 5258
3755, 5411, 5412, 5431, 5430, 5240, 5241, 5260, 5259
3756, 5412, 5413, 5432, 5431, 5241, 5242, 5261, 5260
3757, 5413, 5414, 5433, 5432, 5242, 5243, 5262, 5261
3758, 5414, 5415, 5434, 5433, 5243, 5244, 5263, 5262
3759, 5415, 5416, 5435, 5434, 5244, 5245, 5264, 5263
3760, 5416, 2584, 2585, 5435, 5245, 2575, 2576, 5264
3761, 2549, 5417, 5436, 2550, 2540, 5246, 5265, 2541
3762, 5417, 5418, 5437, 5436, 5246, 5247, 5266, 5265
3763, 5418, 5419, 5438, 5437, 5247, 5248, 5267, 5266
3764, 5419, 5420, 5439, 5438, 5248, 5249, 5268, 5267
3765, 5420, 5421, 5440, 5439, 5249, 5250, 5269, 5268
3766, 5421, 5422, 5441, 5440, 5250, 5251, 5270, 5269
3767, 5422, 5423, 5442, 5441, 5251, 5252, 5271, 5270
3768, 5423, 5424, 5443, 5442, 5252, 5253, 5272, 5271
3769, 5424, 5425, 5444, 5443, 5253, 5254, 5273, 5272
3770, 5425, 5426, 5445, 5444, 5254, 5255, 5274, 5273
3771, 5426, 5427, 5446, 5445, 5255, 5256, 5275, 5274
3772, 5427, 5428, 5447, 5446, 5256, 5257, 5276, 5275
3773, 5428, 5429, 5448, 5447, 5257, 5258, 5277, 5276
3774, 5429, 5430, 5449, 5448, 5258, 5259, 5278, 5277
3775, 5430, 5431, 5450, 5449, 5259, 5260, 5279, 5278
3776, 5431, 5432, 5451, 5450, 5260, 5261, 5280, 5279
3777, 5432, 5433, 5452, 5451, 5261, 5262, 5281, 5280
3778, 5433, 5434, 5453, 5452, 5262, 5263, 5282, 5281
3779, 5434, 5435, 5454, 5453, 5263, 5264, 5283, 5282
3780, 5435, 2585, 2586, 5454, 5264, 2576, 2577, 5283
3781, 2550, 5436, 2624,  408, 2541, 5265, 2605,  407
3782, 5436, 5437, 2625, 2624, 5265, 5266, 2606, 2605
3783, 5437, 5438, 2626, 2625, 5266, 5267, 2607, 2606
3784, 5438, 5439, 2627, 2626, 5267, 5268, 2608, 2607
3785, 5439, 5440, 2628, 2627, 5268, 5269, 2609, 2608
3786, 5440, 5441, 2629, 2628, 5269, 5270, 2610, 2609
3787, 5441, 5442, 2630, 2629, 5270, 5271, 2611, 2610
3788, 5442, 5443, 2631, 2630, 5271, 5272, 2612, 2611
3789, 5443, 5444, 2632, 2631, 5272, 5273, 2613, 2612
3790, 5444, 5445, 2633, 2632, 5273, 5274, 2614, 2613
3791, 5445, 5446, 2634, 2633, 5274, 5275, 2615, 2614
3792, 5446, 5447, 2635, 2634, 5275, 5276, 2616, 2615
3793, 5447, 5448, 2636, 2635, 5276, 5277, 2617, 2616
3794, 5448, 5449, 2637, 2636, 5277, 5278, 2618, 2617
3795, 5449, 5450, 2638, 2637, 5278, 5279, 2619, 2618
3796, 5450, 5451, 2639, 2638, 5279, 5280, 2620, 2619
3797, 5451, 5452, 2640, 2639, 5280, 5281, 2621, 2620
3798, 5452, 5453, 2641, 2640, 5281, 5282, 2622, 2621
3799, 5453, 5454, 2642, 2641, 5282, 5283, 2623, 2622
3800, 5454, 2586,  413, 2642, 5283, 2577,  414, 2623
3801,  327, 2153, 5455, 2551,  326, 2134, 5284, 2542
3802, 2153, 2154, 5456, 5455, 2134, 2135, 5285, 5284
3803, 2154, 2155, 5457, 5456, 2135, 2136, 5286, 5285
3804, 2155, 2156, 5458, 5457, 2136, 2137, 5287, 5286
3805, 2156, 2157, 5459, 5458, 2137, 2138, 5288, 5287
3806, 2157, 2158, 5460, 5459, 2138, 2139, 5289, 5288
3807, 2158, 2159, 5461, 5460, 2139, 2140, 5290, 5289
3808, 2159, 2160, 5462, 5461, 2140, 2141, 5291, 5290
3809, 2160, 2161, 5463, 5462, 2141, 2142, 5292, 5291
3810, 2161, 2162, 5464, 5463, 2142, 2143, 5293, 5292
3811, 2162, 2163, 5465, 5464, 2143, 2144, 5294, 5293
3812, 2163, 2164, 5466, 5465, 2144, 2145, 5295, 5294
3813, 2164, 2165, 5467, 5466, 2145, 2146, 5296, 5295
3814, 2165, 2166, 5468, 5467, 2146, 2147, 5297, 5296
3815, 2166, 2167, 5469, 5468, 2147, 2148, 5298, 5297
3816, 2167, 2168, 5470, 5469, 2148, 2149, 5299, 5298
3817, 2168, 2169, 5471, 5470, 2149, 2150, 5300, 5299
3818, 2169, 2170, 5472, 5471, 2150, 2151, 5301, 5300
3819, 2170, 2171, 5473, 5472, 2151, 2152, 5302, 5301
3820, 2171,  330, 2587, 5473, 2152,  331, 2578, 5302
3821, 2551, 5455, 5474, 2552, 2542, 5284, 5303, 2543
3822, 5455, 5456, 5475, 5474, 5284, 5285, 5304, 5303
3823, 5456, 5457, 5476, 5475, 5285, 5286, 5305, 5304
3824, 5457, 5458, 5477, 5476, 5286, 5287, 5306, 5305
3825, 5458, 5459, 5478, 5477, 5287, 5288, 5307, 5306
3826, 5459, 5460, 5479, 5478, 5288, 5289, 5308, 5307
3827, 5460, 5461, 5480, 5479, 5289, 5290, 5309, 5308
3828, 5461, 5462, 5481, 5480, 5290, 5291, 5310, 5309
3829, 5462, 5463, 5482, 5481, 5291, 5292, 5311, 5310
3830, 5463, 5464, 5483, 5482, 5292, 5293, 5312, 5311
3831, 5464, 5465, 5484, 5483, 5293, 5294, 5313, 5312
3832, 5465, 5466, 5485, 5484, 5294, 5295, 5314, 5313
3833, 5466, 5467, 5486, 5485, 5295, 5296, 5315, 5314
3834, 5467, 5468, 5487, 5486, 5296, 5297, 5316, 5315
3835, 5468, 5469, 5488, 5487, 5297, 5298, 5317, 5316
3836, 5469, 5470, 5489, 5488, 5298, 5299, 5318, 5317
3837, 5470, 5471, 5490, 5489, 5299, 5300, 5319, 5318
3838, 5471, 5472, 5491, 5490, 5300, 5301, 5320, 5319
3839, 5472, 5473, 5492, 5491, 5301, 5302, 5321, 5320
3840, 5473, 2587, 2588, 5492, 5302, 2578, 2579, 5321
3841, 2552, 5474, 5493, 2553, 2543, 5303, 5322, 2544
3842, 5474, 5475, 5494, 5493, 5303, 5304, 5323, 5322
3843, 5475, 5476, 5495, 5494, 5304, 5305, 5324, 5323
3844, 5476, 5477, 5496, 5495, 5305, 5306, 5325, 5324
3845, 5477, 5478, 5497, 5496, 5306, 5307, 5326, 5325
3846, 5478, 5479, 5498, 5497, 5307, 5308, 5327, 5326
3847, 5479, 5480, 5499, 5498, 5308, 5309, 5328, 5327
3848, 5480, 5481, 5500, 5499, 5309, 5310, 5329, 5328
3849, 5481, 5482, 5501, 5500, 5310, 5311, 5330, 5329
3850, 5482, 5483, 5502, 5501, 5311, 5312, 5331, 5330
3851, 5483, 5484, 5503, 5502, 5312, 5313, 5332, 5331
3852, 5484, 5485, 5504, 5503, 5313, 5314, 5333, 5332
3853, 5485, 5486, 5505, 5504, 5314, 5315, 5334, 5333
3854, 5486, 5487, 5506, 5505, 5315, 5316, 5335, 5334
3855, 5487, 5488, 5507, 5506, 5316, 5317, 5336, 5335
3856, 5488, 5489, 5508, 5507, 5317, 5318, 5337, 5336
3857, 5489, 5490, 5509, 5508, 5318, 5319, 5338, 5337
3858, 5490, 5491, 5510, 5509, 5319, 5320, 5339, 5338
3859, 5491, 5492, 5511, 5510, 5320, 5321, 5340, 5339
3860, 5492, 2588, 2589, 5511, 5321, 2579, 2580, 5340
3861, 2553, 5493, 5512, 2554, 2544, 5322, 5341, 2545
3862, 5493, 5494, 5513, 5512, 5322, 5323, 5342, 5341
3863, 5494, 5495, 5514, 5513, 5323, 5324, 5343, 5342
3864, 5495, 5496, 5515, 5514, 5324, 5325, 5344, 5343
3865, 5496, 5497, 5516, 5515, 5325, 5326, 5345, 5344
3866, 5497, 5498, 5517, 5516, 5326, 5327, 5346, 5345
3867, 5498, 5499, 5518, 5517, 5327, 5328, 5347, 5346
3868, 5499, 5500, 5519, 5518, 5328, 5329, 5348, 5347
3869, 5500, 5501, 5520, 5519, 5329, 5330, 5349, 5348
3870, 5501, 5502, 5521, 5520, 5330, 5331, 5350, 5349
3871, 5502, 5503, 5522, 5521, 5331, 5332, 5351, 5350
3872, 5503, 5504, 5523, 5522, 5332, 5333, 5352, 5351
3873, 5504, 5505, 5524, 5523, 5333, 5334, 5353, 5352
3874, 5505, 5506, 5525, 5524, 5334, 5335, 5354, 5353
3875, 5506, 5507, 5526, 5525, 5335, 5336, 5355, 5354
3876, 5507, 5508, 5527, 5526, 5336, 5337, 5356, 5355
3877, 5508, 5509, 5528, 5527, 5337, 5338, 5357, 5356
3878, 5509, 5510, 5529, 5528, 5338, 5339, 5358, 5357
3879, 5510, 5511, 5530, 5529, 5339, 5340, 5359, 5358
3880, 5511, 2589, 2590, 5530, 5340, 2580, 2581, 5359
3881, 2554, 5512, 5531, 2555, 2545, 5341, 5360, 2546
3882, 5512, 5513, 5532, 5531, 5341, 5342, 5361, 5360
3883, 5513, 5514, 5533, 5532, 5342, 5343, 5362, 5361
3884, 5514, 5515, 5534, 5533, 5343, 5344, 5363, 5362
3885, 5515, 5516, 5535, 5534, 5344, 5345, 5364, 5363
3886, 5516, 5517, 5536, 5535, 5345, 5346, 5365, 5364
3887, 5517, 5518, 5537, 5536, 5346, 5347, 5366, 5365
3888, 5518, 5519, 5538, 5537, 5347, 5348, 5367, 5366
3889, 5519, 5520, 5539, 5538, 5348, 5349, 5368, 5367
3890, 5520, 5521, 5540, 5539, 5349, 5350, 5369, 5368
3891, 5521, 5522, 5541, 5540, 5350, 5351, 5370, 5369
3892, 5522, 5523, 5542, 5541, 5351, 5352, 5371, 5370
3893, 5523, 5524, 5543, 5542, 5352, 5353, 5372, 5371
3894, 5524, 5525, 5544, 5543, 5353, 5354, 5373, 5372
3895, 5525, 5526, 5545, 5544, 5354, 5355, 5374, 5373
3896, 5526, 5527, 5546, 5545, 5355, 5356, 5375, 5374
3897, 5527, 5528, 5547, 5546, 5356, 5357, 5376, 5375
3898, 5528, 5529, 5548, 5547, 5357, 5358, 5377, 5376
3899, 5529, 5530, 5549, 5548, 5358, 5359, 5378, 5377
3900, 5530, 2590, 2591, 5549, 5359, 2581, 2582, 5378
3901, 2555, 5531, 5550, 2556, 2546, 5360, 5379, 2547
3902, 5531, 5532, 5551, 5550, 5360, 5361, 5380, 5379
3903, 5532, 5533, 5552, 5551, 5361, 5362, 5381, 5380
3904, 5533, 5534, 5553, 5552, 5362, 5363, 5382, 5381
3905, 5534, 5535, 5554, 5553, 5363, 5364, 5383, 5382
3906, 5535, 5536, 5555, 5554, 5364, 5365, 5384, 5383
3907, 5536, 5537, 5556, 5555, 5365, 5366, 5385, 5384
3908, 5537, 5538, 5557, 5556, 5366, 5367, 5386, 5385
3909, 5538, 5539, 5558, 5557, 5367, 5368, 5387, 5386
3910, 5539, 5540, 5559, 5558, 5368, 5369, 5388, 5387
3911, 5540, 5541, 5560, 5559, 5369, 5370, 5389, 5388
3912, 5541, 5542, 5561, 5560, 5370, 5371, 5390, 5389
3913, 5542, 5543, 5562, 5561, 5371, 5372, 5391, 5390
3914, 5543, 5544, 5563, 5562, 5372, 5373, 5392, 5391
3915, 5544, 5545, 5564, 5563, 5373, 5374, 5393, 5392
3916, 5545, 5546, 5565, 5564, 5374, 5375, 5394, 5393
3917, 5546, 5547, 5566, 5565, 5375, 5376, 5395, 5394
3918, 5547, 5548, 5567, 5566, 5376, 5377, 5396, 5395
3919, 5548, 5549, 5568, 5567, 5377, 5378, 5397, 5396
3920, 5549, 2591, 2592, 5568, 5378, 2582, 2583, 5397
3921, 2556, 5550, 5569, 2557, 2547, 5379, 5398, 2548
3922, 5550, 5551, 5570, 5569, 5379, 5380, 5399, 5398
3923, 5551, 5552, 5571, 5570, 5380, 5381, 5400, 5399
3924, 5552, 5553, 5572, 5571, 5381, 5382, 5401, 5400
3925, 5553, 5554, 5573, 5572, 5382, 5383, 5402, 5401
3926, 5554, 5555, 5574, 5573, 5383, 5384, 5403, 5402
3927, 5555, 5556, 5575, 5574, 5384, 5385, 5404, 5403
3928, 5556, 5557, 5576, 5575, 5385, 5386, 5405, 5404
3929, 5557, 5558, 5577, 5576, 5386, 5387, 5406, 5405
3930, 5558, 5559, 5578, 5577, 5387, 5388, 5407, 5406
3931, 5559, 5560, 5579, 5578, 5388, 5389, 5408, 5407
3932, 5560, 5561, 5580, 5579, 5389, 5390, 5409, 5408
3933, 5561, 5562, 5581, 5580, 5390, 5391, 5410, 5409
3934, 5562, 5563, 5582, 5581, 5391, 5392, 5411, 5410
3935, 5563, 5564, 5583, 5582, 5392, 5393, 5412, 5411
3936, 5564, 5565, 5584, 5583, 5393, 5394, 5413, 5412
3937, 5565, 5566, 5585, 5584, 5394, 5395, 5414, 5413
3938, 5566, 5567, 5586, 5585, 5395, 5396, 5415, 5414
3939, 5567, 5568, 5587, 5586, 5396, 5397, 5416, 5415
3940, 5568, 2592, 2593, 5587, 5397, 2583, 2584, 5416
3941, 2557, 5569, 5588, 2558, 2548, 5398, 5417, 2549
3942, 5569, 5570, 5589, 5588, 5398, 5399, 5418, 5417
3943, 5570, 5571, 5590, 5589, 5399, 5400, 5419, 5418
3944, 5571, 5572, 5591, 5590, 5400, 5401, 5420, 5419
3945, 5572, 5573, 5592, 5591, 5401, 5402, 5421, 5420
3946, 5573, 5574, 5593, 5592, 5402, 5403, 5422, 5421
3947, 5574, 5575, 5594, 5593, 5403, 5404, 5423, 5422
3948, 5575, 5576, 5595, 5594, 5404, 5405, 5424, 5423
3949, 5576, 5577, 5596, 5595, 5405, 5406, 5425, 5424
3950, 5577, 5578, 5597, 5596, 5406, 5407, 5426, 5425
3951, 5578, 5579, 5598, 5597, 5407, 5408, 5427, 5426
3952, 5579, 5580, 5599, 5598, 5408, 5409, 5428, 5427
3953, 5580, 5581, 5600, 5599, 5409, 5410, 5429, 5428
3954, 5581, 5582, 5601, 5600, 5410, 5411, 5430, 5429
3955, 5582, 5583, 5602, 5601, 5411, 5412, 5431, 5430
3956, 5583, 5584, 5603, 5602, 5412, 5413, 5432, 5431
3957, 5584, 5585, 5604, 5603, 5413, 5414, 5433, 5432
3958, 5585, 5586, 5605, 5604, 5414, 5415, 5434, 5433
3959, 5586, 5587, 5606, 5605, 5415, 5416, 5435, 5434
3960, 5587, 2593, 2594, 5606, 5416, 2584, 2585, 5435
3961, 2558, 5588, 5607, 2559, 2549, 5417, 5436, 2550
3962, 5588, 5589, 5608, 5607, 5417, 5418, 5437, 5436
3963, 5589, 5590, 5609, 5608, 5418, 5419, 5438, 5437
3964, 5590, 5591, 5610, 5609, 5419, 5420, 5439, 5438
3965, 5591, 5592, 5611, 5610, 5420, 5421, 5440, 5439
3966, 5592, 5593, 5612, 5611, 5421, 5422, 5441, 5440
3967, 5593, 5594, 5613, 5612, 5422, 5423, 5442, 5441
3968, 5594, 5595, 5614, 5613, 5423, 5424, 5443, 5442
3969, 5595, 5596, 5615, 5614, 5424, 5425, 5444, 5443
3970, 5596, 5597, 5616, 5615, 5425, 5426, 5445, 5444
3971, 5597, 5598, 5617, 5616, 5426, 5427, 5446, 5445
3972, 5598, 5599, 5618, 5617, 5427, 5428, 5447, 5446
3973, 5599, 5600, 5619, 5618, 5428, 5429, 5448, 5447
3974, 5600, 5601, 5620, 5619, 5429, 5430, 5449, 5448
3975, 5601, 5602, 5621, 5620, 5430, 5431, 5450, 5449
3976, 5602, 5603, 5622, 5621, 5431, 5432, 5451, 5450
3977, 5603, 5604, 5623, 5622, 5432, 5433, 5452, 5451
3978, 5604, 5605, 5624, 5623, 5433, 5434, 5453, 5452
3979, 5605, 5606, 5625, 5624, 5434, 5435, 5454, 5453
3980, 5606, 2594, 2595, 5625, 5435, 2585, 2586, 5454
3981, 2559, 5607, 2643,  409, 2550, 5436, 2624,  408
3982, 5607, 5608, 2644, 2643, 5436, 5437, 2625, 2624
3983, 5608, 5609, 2645, 2644, 5437, 5438, 2626, 2625
3984, 5609, 5610, 2646, 2645, 5438, 5439, 2627, 2626
3985, 5610, 5611, 2647, 2646, 5439, 5440, 2628, 2627
3986, 5611, 5612, 2648, 2647, 5440, 5441, 2629, 2628
3987, 5612, 5613, 2649, 2648, 5441, 5442, 2630, 2629
3988, 5613, 5614, 2650, 2649, 5442, 5443, 2631, 2630
3989, 5614, 5615, 2651, 2650, 5443, 5444, 2632, 2631
3990, 5615, 5616, 2652, 2651, 5444, 5445, 2633, 2632
3991, 5616, 5617, 2653, 2652, 5445, 5446, 2634, 2633
3992, 5617, 5618, 2654, 2653, 5446, 5447, 2635, 2634
3993, 5618, 5619, 2655, 2654, 5447, 5448, 2636, 2635
3994, 5619, 5620, 2656, 2655, 5448, 5449, 2637, 2636
3995, 5620, 5621, 2657, 2656, 5449, 5450, 2638, 2637
3996, 5621, 5622, 2658, 2657, 5450, 5451, 2639, 2638
3997, 5622, 5623, 2659, 2658, 5451, 5452, 2640, 2639
3998, 5623, 5624, 2660, 2659, 5452, 5453, 2641, 2640
3999, 5624, 5625, 2661, 2660, 5453, 5454, 2642, 2641
4000, 5625, 2595,  412, 2661, 5454, 2586,  413, 2642
4001,  328, 2172, 5626, 2560,  327, 2153, 5455, 2551
4002, 2172, 2173, 5627, 5626, 2153, 2154, 5456, 5455
4003, 2173, 2174, 5628, 5627, 2154, 2155, 5457, 5456
4004, 2174, 2175, 5629, 5628, 2155, 2156, 5458, 5457
4005, 2175, 2176, 5630, 5629, 2156, 2157, 5459, 5458
4006, 2176, 2177, 5631, 5630, 2157, 2158, 5460, 5459
4007, 2177, 2178, 5632, 5631, 2158, 2159, 5461, 5460
4008, 2178, 2179, 5633, 5632, 2159, 2160, 5462, 5461
4009, 2179, 2180, 5634, 5633, 2160, 2161, 5463, 5462
4010, 2180, 2181, 5635, 5634, 2161, 2162, 5464, 5463
4011, 2181, 2182, 5636, 5635, 2162, 2163, 5465, 5464
4012, 2182, 2183, 5637, 5636, 2163, 2164, 5466, 5465
4013, 2183, 2184, 5638, 5637, 2164, 2165, 5467, 5466
4014, 2184, 2185, 5639, 5638, 2165, 2166, 5468, 5467
4015, 2185, 2186, 5640, 5639, 2166, 2167, 5469, 5468
4016, 2186, 2187, 5641, 5640, 2167, 2168, 5470, 5469
4017, 2187, 2188, 5642, 5641, 2168, 2169, 5471, 5470
4018, 2188, 2189, 5643, 5642, 2169, 2170, 5472, 5471
4019, 2189, 2190, 5644, 5643, 2170, 2171, 5473, 5472
4020, 2190,  329, 2596, 5644, 2171,  330, 2587, 5473
4021, 2560, 5626, 5645, 2561, 2551, 5455, 5474, 2552
4022, 5626, 5627, 5646, 5645, 5455, 5456, 5475, 5474
4023, 5627, 5628, 5647, 5646, 5456, 5457, 5476, 5475
4024, 5628, 5629, 5648, 5647, 5457, 5458, 5477, 5476
4025, 5629, 5630, 5649, 5648, 5458, 5459, 5478, 5477
4026, 5630, 5631, 5650, 5649, 5459, 5460, 5479, 5478
4027, 5631, 5632, 5651, 5650, 5460, 5461, 5480, 5479
4028, 5632, 5633, 5652, 5651, 5461, 5462, 5481, 5480
4029, 5633, 5634, 5653, 5652, 5462, 5463, 5482, 5481
4030, 5634, 5635, 5654, 5653, 5463, 5464, 5483, 5482
4031, 5635, 5636, 5655, 5654, 5464, 5465, 5484, 5483
4032, 5636, 5637, 5656, 5655, 5465, 5466, 5485, 5484
4033, 5637, 5638, 5657, 5656, 5466, 5467, 5486, 5485
4034, 5638, 5639, 5658, 5657, 5467, 5468, 5487, 5486
4035, 5639, 5640, 5659, 5658, 5468, 5469, 5488, 5487
4036, 5640, 5641, 5660, 5659, 5469, 5470, 5489, 5488
4037, 5641, 5642, 5661, 5660, 5470, 5471, 5490, 5489
4038, 5642, 5643, 5662, 5661, 5471, 5472, 5491, 5490
4039, 5643, 5644, 5663, 5662, 5472, 5473, 5492, 5491
4040, 5644, 2596, 2597, 5663, 5473, 2587, 2588, 5492
4041, 2561, 5645, 5664, 2562, 2552, 5474, 5493, 2553
4042, 5645, 5646, 5665, 5664, 5474, 5475, 5494, 5493
4043, 5646, 5647, 5666, 5665, 5475, 5476, 5495, 5494
4044, 5647, 5648, 5667, 5666, 5476, 5477, 5496, 5495
4045, 5648, 5649, 5668, 5667, 5477, 5478, 5497, 5496
4046, 5649, 5650, 5669, 5668, 5478, 5479, 5498, 5497
4047, 5650, 5651, 5670, 5669, 5479, 5480, 5499, 5498
4048, 5651, 5652, 5671, 5670, 5480, 5481, 5500, 5499
4049, 5652, 5653, 5672, 5671, 5481, 5482, 5501, 5500
4050, 5653, 5654, 5673, 5672, 5482, 5483, 5502, 5501
4051, 5654, 5655, 5674, 5673, 5483, 5484, 5503, 5502
4052, 5655, 5656, 5675, 5674, 5484, 5485, 5504, 5503
4053, 5656, 5657, 5676, 5675, 5485, 5486, 5505, 5504
4054, 5657, 5658, 5677, 5676, 5486, 5487, 5506, 5505
4055, 5658, 5659, 5678, 5677, 5487, 5488, 5507, 5506
4056, 5659, 5660, 5679, 5678, 5488, 5489, 5508, 5507
4057, 5660, 5661, 5680, 5679, 5489, 5490, 5509, 5508
4058, 5661, 5662, 5681, 5680, 5490, 5491, 5510, 5509
4059, 5662, 5663, 5682, 5681, 5491, 5492, 5511, 5510
4060, 5663, 2597, 2598, 5682, 5492, 2588, 2589, 5511
4061, 2562, 5664, 5683, 2563, 2553, 5493, 5512, 2554
4062, 5664, 5665, 5684, 5683, 5493, 5494, 5513, 5512
4063, 5665, 5666, 5685, 5684, 5494, 5495, 5514, 5513
4064, 5666, 5667, 5686, 5685, 5495, 5496, 5515, 5514
4065, 5667, 5668, 5687, 5686, 5496, 5497, 5516, 5515
4066, 5668, 5669, 5688, 5687, 5497, 5498, 5517, 5516
4067, 5669, 5670, 5689, 5688, 5498, 5499, 5518, 5517
4068, 5670, 5671, 5690, 5689, 5499, 5500, 5519, 5518
4069, 5671, 5672, 5691, 5690, 5500, 5501, 5520, 5519
4070, 5672, 5673, 5692, 5691, 5501, 5502, 5521, 5520
4071, 5673, 5674, 5693, 5692, 5502, 5503, 5522, 5521
4072, 5674, 5675, 5694, 5693, 5503, 5504, 5523, 5522
4073, 5675, 5676, 5695, 5694, 5504, 5505, 5524, 5523
4074, 5676, 5677, 5696, 5695, 5505, 5506, 5525, 5524
4075, 5677, 5678, 5697, 5696, 5506, 5507, 5526, 5525
4076, 5678, 5679, 5698, 5697, 5507, 5508, 5527, 5526
4077, 5679, 5680, 5699, 5698, 5508, 5509, 5528, 5527
4078, 5680, 5681, 5700, 5699, 5509, 5510, 5529, 5528
4079, 5681, 5682, 5701, 5700, 5510, 5511, 5530, 5529
4080, 5682, 2598, 2599, 5701, 5511, 2589, 2590, 5530
4081, 2563, 5683, 5702, 2564, 2554, 5512, 5531, 2555
4082, 5683, 5684, 5703, 5702, 5512, 5513, 5532, 5531
4083, 5684, 5685, 5704, 5703, 5513, 5514, 5533, 5532
4084, 5685, 5686, 5705, 5704, 5514, 5515, 5534, 5533
4085, 5686, 5687, 5706, 5705, 5515, 5516, 5535, 5534
4086, 5687, 5688, 5707, 5706, 5516, 5517, 5536, 5535
4087, 5688, 5689, 5708, 5707, 5517, 5518, 5537, 5536
4088, 5689, 5690, 5709, 5708, 5518, 5519, 5538, 5537
4089, 5690, 5691, 5710, 5709, 5519, 5520, 5539, 5538
4090, 5691, 5692, 5711, 5710, 5520, 5521, 5540, 5539
4091, 5692, 5693, 5712, 5711, 5521, 5522, 5541, 5540
4092, 5693, 5694, 5713, 5712, 5522, 5523, 5542, 5541
4093, 5694, 5695, 5714, 5713, 5523, 5524, 5543, 5542
4094, 5695, 5696, 5715, 5714, 5524, 5525, 5544, 5543
4095, 5696, 5697, 5716, 5715, 5525, 5526, 5545, 5544
4096, 5697, 5698, 5717, 5716, 5526, 5527, 5546, 5545
4097, 5698, 5699, 5718, 5717, 5527, 5528, 5547, 5546
4098, 5699, 5700, 5719, 5718, 5528, 5529, 5548, 5547
4099, 5700, 5701, 5720, 5719, 5529, 5530, 5549, 5548
4100, 5701, 2599, 2600, 5720, 5530, 2590, 2591, 5549
4101, 2564, 5702, 5721, 2565, 2555, 5531, 5550, 2556
4102, 5702, 5703, 5722, 5721, 5531, 5532, 5551, 5550
4103, 5703, 5704, 5723, 5722, 5532, 5533, 5552, 5551
4104, 5704, 5705, 5724, 5723, 5533, 5534, 5553, 5552
4105, 5705, 5706, 5725, 5724, 5534, 5535, 5554, 5553
4106, 5706, 5707, 5726, 5725, 5535, 5536, 5555, 5554
4107, 5707, 5708, 5727, 5726, 5536, 5537, 5556, 5555
4108, 5708, 5709, 5728, 5727, 5537, 5538, 5557, 5556
4109, 5709, 5710, 5729, 5728, 5538, 5539, 5558, 5557
4110, 5710, 5711, 5730, 5729, 5539, 5540, 5559, 5558
4111, 5711, 5712, 5731, 5730, 5540, 5541, 5560, 5559
4112, 5712, 5713, 5732, 5731, 5541, 5542, 5561, 5560
4113, 5713, 5714, 5733, 5732, 5542, 5543, 5562, 5561
4114, 5714, 5715, 5734, 5733, 5543, 5544, 5563, 5562
4115, 5715, 5716, 5735, 5734, 5544, 5545, 5564, 5563
4116, 5716, 5717, 5736, 5735, 5545, 5546, 5565, 5564
4117, 5717, 5718, 5737, 5736, 5546, 5547, 5566, 5565
4118, 5718, 5719, 5738, 5737, 5547, 5548, 5567, 5566
4119, 5719, 5720, 5739, 5738, 5548, 5549, 5568, 5567
4120, 5720, 2600, 2601, 5739, 5549, 2591, 2592, 5568
4121, 2565, 5721, 5740, 2566, 2556, 5550, 5569, 2557
4122, 5721, 5722, 5741, 5740, 5550, 5551, 5570, 5569
4123, 5722, 5723, 5742, 5741, 5551, 5552, 5571, 5570
4124, 5723, 5724, 5743, 5742, 5552, 5553, 5572, 5571
4125, 5724, 5725, 5744, 5743, 5553, 5554, 5573, 5572
4126, 5725, 5726, 5745, 5744, 5554, 5555, 5574, 5573
4127, 5726, 5727, 5746, 5745, 5555, 5556, 5575, 5574
4128, 5727, 5728, 5747, 5746, 5556, 5557, 5576, 5575
4129, 5728, 5729, 5748, 5747, 5557, 5558, 5577, 5576
4130, 5729, 5730, 5749, 5748, 5558, 5559, 5578, 5577
4131, 5730, 5731, 5750, 5749, 5559, 5560, 5579, 5578
4132, 5731, 5732, 5751, 5750, 5560, 5561, 5580, 5579
4133, 5732, 5733, 5752, 5751, 5561, 5562, 5581, 5580
4134, 5733, 5734, 5753, 5752, 5562, 5563, 5582, 5581
4135, 5734, 5735, 5754, 5753, 5563, 5564, 5583, 5582
4136, 5735, 5736, 5755, 5754, 5564, 5565, 5584, 5583
4137, 5736, 5737, 5756, 5755, 5565, 5566, 5585, 5584
4138, 5737, 5738, 5757, 5756, 5566, 5567, 5586, 5585
4139, 5738, 5739, 5758, 5757, 5567, 5568, 5587, 5586
4140, 5739, 2601, 2602, 5758, 5568, 2592, 2593, 5587
4141, 2566, 5740, 5759, 2567, 2557, 5569, 5588, 2558
4142, 5740, 5741, 5760, 5759, 5569, 5570, 5589, 5588
4143, 5741, 5742, 5761, 5760, 5570, 5571, 5590, 5589
4144, 5742, 5743, 5762, 5761, 5571, 5572, 5591, 5590
4145, 5743, 5744, 5763, 5762, 5572, 5573, 5592, 5591
4146, 5744, 5745, 5764, 5763, 5573, 5574, 5593, 5592
4147, 5745, 5746, 5765, 5764, 5574, 5575, 5594, 5593
4148, 5746, 5747, 5766, 5765, 5575, 5576, 5595, 5594
4149, 5747, 5748, 5767, 5766, 5576, 5577, 5596, 5595
4150, 5748, 5749, 5768, 5767, 5577, 5578, 5597, 5596
4151, 5749, 5750, 5769, 5768, 5578, 5579, 5598, 5597
4152, 5750, 5751, 5770, 5769, 5579, 5580, 5599, 5598
4153, 5751, 5752, 5771, 5770, 5580, 5581, 5600, 5599
4154, 5752, 5753, 5772, 5771, 5581, 5582, 5601, 5600
4155, 5753, 5754, 5773, 5772, 5582, 5583, 5602, 5601
4156, 5754, 5755, 5774, 5773, 5583, 5584, 5603, 5602
4157, 5755, 5756, 5775, 5774, 5584, 5585, 5604, 5603
4158, 5756, 5757, 5776, 5775, 5585, 5586, 5605, 5604
4159, 5757, 5758, 5777, 5776, 5586, 5587, 5606, 5605
4160, 5758, 2602, 2603, 5777, 5587, 2593, 2594, 5606
4161, 2567, 5759, 5778, 2568, 2558, 5588, 5607, 2559
4162, 5759, 5760, 5779, 5778, 5588, 5589, 5608, 5607
4163, 5760, 5761, 5780, 5779, 5589, 5590, 5609, 5608
4164, 5761, 5762, 5781, 5780, 5590, 5591, 5610, 5609
4165, 5762, 5763, 5782, 5781, 5591, 5592, 5611, 5610
4166, 5763, 5764, 5783, 5782, 5592, 5593, 5612, 5611
4167, 5764, 5765, 5784, 5783, 5593, 5594, 5613, 5612
4168, 5765, 5766, 5785, 5784, 5594, 5595, 5614, 5613
4169, 5766, 5767, 5786, 5785, 5595, 5596, 5615, 5614
4170, 5767, 5768, 5787, 5786, 5596, 5597, 5616, 5615
4171, 5768, 5769, 5788, 5787, 5597, 5598, 5617, 5616
4172, 5769, 5770, 5789, 5788, 5598, 5599, 5618, 5617
4173, 5770, 5771, 5790, 5789, 5599, 5600, 5619, 5618
4174, 5771, 5772, 5791, 5790, 5600, 5601, 5620, 5619
4175, 5772, 5773, 5792, 5791, 5601, 5602, 5621, 5620
4176, 5773, 5774, 5793, 5792, 5602, 5603, 5622, 5621
4177, 5774, 5775, 5794, 5793, 5603, 5604, 5623, 5622
4178, 5775, 5776, 5795, 5794, 5604, 5605, 5624, 5623
4179, 5776, 5777, 5796, 5795, 5605, 5606, 5625, 5624
4180, 5777, 2603, 2604, 5796, 5606, 2594, 2595, 5625
4181, 2568, 5778, 2662,  410, 2559, 5607, 2643,  409
4182, 5778, 5779, 2663, 2662, 5607, 5608, 2644, 2643
4183, 5779, 5780, 2664, 2663, 5608, 5609, 2645, 2644
4184, 5780, 5781, 2665, 2664, 5609, 5610, 2646, 2645
4185, 5781, 5782, 2666, 2665, 5610, 5611, 2647, 2646
4186, 5782, 5783, 2667, 2666, 5611, 5612, 2648, 2647
4187, 5783, 5784, 2668, 2667, 5612, 5613, 2649, 2648
4188, 5784, 5785, 2669, 2668, 5613, 5614, 2650, 2649
4189, 5785, 5786, 2670, 2669, 5614, 5615, 2651, 2650
4190, 5786, 5787, 2671, 2670, 5615, 5616, 2652, 2651
4191, 5787, 5788, 2672, 2671, 5616, 5617, 2653, 2652
4192, 5788, 5789, 2673, 2672, 5617, 5618, 2654, 2653
4193, 5789, 5790, 2674, 2673, 5618, 5619, 2655, 2654
4194, 5790, 5791, 2675, 2674, 5619, 5620, 2656, 2655
4195, 5791, 5792, 2676, 2675, 5620, 5621, 2657, 2656
4196, 5792, 5793, 2677, 2676, 5621, 5622, 2658, 2657
4197, 5793, 5794, 2678, 2677, 5622, 5623, 2659, 2658
4198, 5794, 5795, 2679, 2678, 5623, 5624, 2660, 2659
4199, 5795, 5796, 2680, 2679, 5624, 5625, 2661, 2660
4200, 5796, 2604,  411, 2680, 5625, 2595,  412, 2661
4201,   16,  291, 2362,  398,  328, 2172, 5626, 2560
4202,  291,  292, 2363, 2362, 2172, 2173, 5627, 5626
4203,  292,  293, 2364, 2363, 2173, 2174, 5628, 5627
4204,  293,  294, 2365, 2364, 2174, 2175, 5629, 5628
4205,  294,  295, 2366, 2365, 2175, 2176, 5630, 5629
4206,  295,  296, 2367, 2366, 2176, 2177, 5631, 5630
4207,  296,  297, 2368, 2367, 2177, 2178, 5632, 5631
4208,  297,  298, 2369, 2368, 2178, 2179, 5633, 5632
4209,  298,  299, 2370, 2369, 2179, 2180, 5634, 5633
4210,  299,  300, 2371, 2370, 2180, 2181, 5635, 5634
4211,  300,  301, 2372, 2371, 2181, 2182, 5636, 5635
4212,  301,  302, 2373, 2372, 2182, 2183, 5637, 5636
4213,  302,  303, 2374, 2373, 2183, 2184, 5638, 5637
4214,  303,  304, 2375, 2374, 2184, 2185, 5639, 5638
4215,  304,  305, 2376, 2375, 2185, 2186, 5640, 5639
4216,  305,  306, 2377, 2376, 2186, 2187, 5641, 5640
4217,  306,  307, 2378, 2377, 2187, 2188, 5642, 5641
4218,  307,  308, 2379, 2378, 2188, 2189, 5643, 5642
4219,  308,  309, 2380, 2379, 2189, 2190, 5644, 5643
4220,  309,   15,  378, 2380, 2190,  329, 2596, 5644
4221,  398, 2362, 2381,  399, 2560, 5626, 5645, 2561
4222, 2362, 2363, 2382, 2381, 5626, 5627, 5646, 5645
4223, 2363, 2364, 2383, 2382, 5627, 5628, 5647, 5646
4224, 2364, 2365, 2384, 2383, 5628, 5629, 5648, 5647
4225, 2365, 2366, 2385, 2384, 5629, 5630, 5649, 5648
4226, 2366, 2367, 2386, 2385, 5630, 5631, 5650, 5649
4227, 2367, 2368, 2387, 2386, 5631, 5632, 5651, 5650
4228, 2368, 2369, 2388, 2387, 5632, 5633, 5652, 5651
4229, 2369, 2370, 2389, 2388, 5633, 5634, 5653, 5652
4230, 2370, 2371, 2390, 2389, 5634, 5635, 5654, 5653
4231, 2371, 2372, 2391, 2390, 5635, 5636, 5655, 5654
4232, 2372, 2373, 2392, 2391, 5636, 5637, 5656, 5655
4233, 2373, 2374, 2393, 2392, 5637, 5638, 5657, 5656
4234, 2374, 2375, 2394, 2393, 5638, 5639, 5658, 5657
4235, 2375, 2376, 2395, 2394, 5639, 5640, 5659, 5658
4236, 2376, 2377, 2396, 2395, 5640, 5641, 5660, 5659
4237, 2377, 2378, 2397, 2396, 5641, 5642, 5661, 5660
4238, 2378, 2379, 2398, 2397, 5642, 5643, 5662, 5661
4239, 2379, 2380, 2399, 2398, 5643, 5644, 5663, 5662
4240, 2380,  378,  377, 2399, 5644, 2596, 2597, 5663
4241,  399, 2381, 2400,  400, 2561, 5645, 5664, 2562
4242, 2381, 2382, 2401, 2400, 5645, 5646, 5665, 5664
4243, 2382, 2383, 2402, 2401, 5646, 5647, 5666, 5665
4244, 2383, 2384, 2403, 2402, 5647, 5648, 5667, 5666
4245, 2384, 2385, 2404, 2403, 5648, 5649, 5668, 5667
4246, 2385, 2386, 2405, 2404, 5649, 5650, 5669, 5668
4247, 2386, 2387, 2406, 2405, 5650, 5651, 5670, 5669
4248, 2387, 2388, 2407, 2406, 5651, 5652, 5671, 5670
4249, 2388, 2389, 2408, 2407, 5652, 5653, 5672, 5671
4250, 2389, 2390, 2409, 2408, 5653, 5654, 5673, 5672
4251, 2390, 2391, 2410, 2409, 5654, 5655, 5674, 5673
4252, 2391, 2392, 2411, 2410, 5655, 5656, 5675, 5674
4253, 2392, 2393, 2412, 2411, 5656, 5657, 5676, 5675
4254, 2393, 2394, 2413, 2412, 5657, 5658, 5677, 5676
4255, 2394, 2395, 2414, 2413, 5658, 5659, 5678, 5677
4256, 2395, 2396, 2415, 2414, 5659, 5660, 5679, 5678
4257, 2396, 2397, 2416, 2415, 5660, 5661, 5680, 5679
4258, 2397, 2398, 2417, 2416, 5661, 5662, 5681, 5680
4259, 2398, 2399, 2418, 2417, 5662, 5663, 5682, 5681
4260, 2399,  377,  376, 2418, 5663, 2597, 2598, 5682
4261,  400, 2400, 2419,  401, 2562, 5664, 5683, 2563
4262, 2400, 2401, 2420, 2419, 5664, 5665, 5684, 5683
4263, 2401, 2402, 2421, 2420, 5665, 5666, 5685, 5684
4264, 2402, 2403, 2422, 2421, 5666, 5667, 5686, 5685
4265, 2403, 2404, 2423, 2422, 5667, 5668, 5687, 5686
4266, 2404, 2405, 2424, 2423, 5668, 5669, 5688, 5687
4267, 2405, 2406, 2425, 2424, 5669, 5670, 5689, 5688
4268, 2406, 2407, 2426, 2425, 5670, 5671, 5690, 5689
4269, 2407, 2408, 2427, 2426, 5671, 5672, 5691, 5690
4270, 2408, 2409, 2428, 2427, 5672, 5673, 5692, 5691
4271, 2409, 2410, 2429, 2428, 5673, 5674, 5693, 5692
4272, 2410, 2411, 2430, 2429, 5674, 5675, 5694, 5693
4273, 2411, 2412, 2431, 2430, 5675, 5676, 5695, 5694
4274, 2412, 2413, 2432, 2431, 5676, 5677, 5696, 5695
4275, 2413, 2414, 2433, 2432, 5677, 5678, 5697, 5696
4276, 2414, 2415, 2434, 2433, 5678, 5679, 5698, 5697
4277, 2415, 2416, 2435, 2434, 5679, 5680, 5699, 5698
4278, 2416, 2417, 2436, 2435, 5680, 5681, 5700, 5699
4279, 2417, 2418, 2437, 2436, 5681, 5682, 5701, 5700
4280, 2418,  376,  375, 2437, 5682, 2598, 2599, 5701
4281,  401, 2419, 2438,  402, 2563, 5683, 5702, 2564
4282, 2419, 2420, 2439, 2438, 5683, 5684, 5703, 5702
4283, 2420, 2421, 2440, 2439, 5684, 5685, 5704, 5703
4284, 2421, 2422, 2441, 2440, 5685, 5686, 5705, 5704
4285, 2422, 2423, 2442, 2441, 5686, 5687, 5706, 5705
4286, 2423, 2424, 2443, 2442, 5687, 5688, 5707, 5706
4287, 2424, 2425, 2444, 2443, 5688, 5689, 5708, 5707
4288, 2425, 2426, 2445, 2444, 5689, 5690, 5709, 5708
4289, 2426, 2427, 2446, 2445, 5690, 5691, 5710, 5709
4290, 2427, 2428, 2447, 2446, 5691, 5692, 5711, 5710
4291, 2428, 2429, 2448, 2447, 5692, 5693, 5712, 5711
4292, 2429, 2430, 2449, 2448, 5693, 5694, 5713, 5712
4293, 2430, 2431, 2450, 2449, 5694, 5695, 5714, 5713
4294, 2431, 2432, 2451, 2450, 5695, 5696, 5715, 5714
4295, 2432, 2433, 2452, 2451, 5696, 5697, 5716, 5715
4296, 2433, 2434, 2453, 2452, 5697, 5698, 5717, 5716
4297, 2434, 2435, 2454, 2453, 5698, 5699, 5718, 5717
4298, 2435, 2436, 2455, 2454, 5699, 5700, 5719, 5718
4299, 2436, 2437, 2456, 2455, 5700, 5701, 5720, 5719
4300, 2437,  375,  374, 2456, 5701, 2599, 2600, 5720
4301,  402, 2438, 2457,  403, 2564, 5702, 5721, 2565
4302, 2438, 2439, 2458, 2457, 5702, 5703, 5722, 5721
4303, 2439, 2440, 2459, 2458, 5703, 5704, 5723, 5722
4304, 2440, 2441, 2460, 2459, 5704, 5705, 5724, 5723
4305, 2441, 2442, 2461, 2460, 5705, 5706, 5725, 5724
4306, 2442, 2443, 2462, 2461, 5706, 5707, 5726, 5725
4307, 2443, 2444, 2463, 2462, 5707, 5708, 5727, 5726
4308, 2444, 2445, 2464, 2463, 5708, 5709, 5728, 5727
4309, 2445, 2446, 2465, 2464, 5709, 5710, 5729, 5728
4310, 2446, 2447, 2466, 2465, 5710, 5711, 5730, 5729
4311, 2447, 2448, 2467, 2466, 5711, 5712, 5731, 5730
4312, 2448, 2449, 2468, 2467, 5712, 5713, 5732, 5731
4313, 2449, 2450, 2469, 2468, 5713, 5714, 5733, 5732
4314, 2450, 2451, 2470, 2469, 5714, 5715, 5734, 5733
4315, 2451, 2452, 2471, 2470, 5715, 5716, 5735, 5734
4316, 2452, 2453, 2472, 2471, 5716, 5717, 5736, 5735
4317, 2453, 2454, 2473, 2472, 5717, 5718, 5737, 5736
4318, 2454, 2455, 2474, 2473, 5718, 5719, 5738, 5737
4319, 2455, 2456, 2475, 2474, 5719, 5720, 5739, 5738
4320, 2456,  374,  373, 2475, 5720, 2600, 2601, 5739
4321,  403, 2457, 2476,  404, 2565, 5721, 5740, 2566
4322, 2457, 2458, 2477, 2476, 5721, 5722, 5741, 5740
4323, 2458, 2459, 2478, 2477, 5722, 5723, 5742, 5741
4324, 2459, 2460, 2479, 2478, 5723, 5724, 5743, 5742
4325, 2460, 2461, 2480, 2479, 5724, 5725, 5744, 5743
4326, 2461, 2462, 2481, 2480, 5725, 5726, 5745, 5744
4327, 2462, 2463, 2482, 2481, 5726, 5727, 5746, 5745
4328, 2463, 2464, 2483, 2482, 5727, 5728, 5747, 5746
4329, 2464, 2465, 2484, 2483, 5728, 5729, 5748, 5747
4330, 2465, 2466, 2485, 2484, 5729, 5730, 5749, 5748
4331, 2466, 2467, 2486, 2485, 5730, 5731, 5750, 5749
4332, 2467, 2468, 2487, 2486, 5731, 5732, 5751, 5750
4333, 2468, 2469, 2488, 2487, 5732, 5733, 5752, 5751
4334, 2469, 2470, 2489, 2488, 5733, 5734, 5753, 5752
4335, 2470, 2471, 2490, 2489, 5734, 5735, 5754, 5753
4336, 2471, 2472, 2491, 2490, 5735, 5736, 5755, 5754
4337, 2472, 2473, 2492, 2491, 5736, 5737, 5756, 5755
4338, 2473, 2474, 2493, 2492, 5737, 5738, 5757, 5756
4339, 2474, 2475, 2494, 2493, 5738, 5739, 5758, 5757
4340, 2475,  373,  372, 2494, 5739, 2601, 2602, 5758
4341,  404, 2476, 2495,  405, 2566, 5740, 5759, 2567
4342, 2476, 2477, 2496, 2495, 5740, 5741, 5760, 5759
4343, 2477, 2478, 2497, 2496, 5741, 5742, 5761, 5760
4344, 2478, 2479, 2498, 2497, 5742, 5743, 5762, 5761
4345, 2479, 2480, 2499, 2498, 5743, 5744, 5763, 5762
4346, 2480, 2481, 2500, 2499, 5744, 5745, 5764, 5763
4347, 2481, 2482, 2501, 2500, 5745, 5746, 5765, 5764
4348, 2482, 2483, 2502, 2501, 5746, 5747, 5766, 5765
4349, 2483, 2484, 2503, 2502, 5747, 5748, 5767, 5766
4350, 2484, 2485, 2504, 2503, 5748, 5749, 5768, 5767
4351, 2485, 2486, 2505, 2504, 5749, 5750, 5769, 5768
4352, 2486, 2487, 2506, 2505, 5750, 5751, 5770, 5769
4353, 2487, 2488, 2507, 2506, 5751, 5752, 5771, 5770
4354, 2488, 2489, 2508, 2507, 5752, 5753, 5772, 5771
4355, 2489, 2490, 2509, 2508, 5753, 5754, 5773, 5772
4356, 2490, 2491, 2510, 2509, 5754, 5755, 5774, 5773
4357, 2491, 2492, 2511, 2510, 5755, 5756, 5775, 5774
4358, 2492, 2493, 2512, 2511, 5756, 5757, 5776, 5775
4359, 2493, 2494, 2513, 2512, 5757, 5758, 5777, 5776
4360, 2494,  372,  371, 2513, 5758, 2602, 2603, 5777
4361,  405, 2495, 2514,  406, 2567, 5759, 5778, 2568
4362, 2495, 2496, 2515, 2514, 5759, 5760, 5779, 5778
4363, 2496, 2497, 2516, 2515, 5760, 5761, 5780, 5779
4364, 2497, 2498, 2517, 2516, 5761, 5762, 5781, 5780
4365, 2498, 2499, 2518, 2517, 5762, 5763, 5782, 5781
4366, 2499, 2500, 2519, 2518, 5763, 5764, 5783, 5782
4367, 2500, 2501, 2520, 2519, 5764, 5765, 5784, 5783
4368, 2501, 2502, 2521, 2520, 5765, 5766, 5785, 5784
4369, 2502, 2503, 2522, 2521, 5766, 5767, 5786, 5785
4370, 2503, 2504, 2523, 2522, 5767, 5768, 5787, 5786
4371, 2504, 2505, 2524, 2523, 5768, 5769, 5788, 5787
4372, 2505, 2506, 2525, 2524, 5769, 5770, 5789, 5788
4373, 2506, 2507, 2526, 2525, 5770, 5771, 5790, 5789
4374, 2507, 2508, 2527, 2526, 5771, 5772, 5791, 5790
4375, 2508, 2509, 2528, 2527, 5772, 5773, 5792, 5791
4376, 2509, 2510, 2529, 2528, 5773, 5774, 5793, 5792
4377, 2510, 2511, 2530, 2529, 5774, 5775, 5794, 5793
4378, 2511, 2512, 2531, 2530, 5775, 5776, 5795, 5794
4379, 2512, 2513, 2532, 2531, 5776, 5777, 5796, 5795
4380, 2513,  371,  370, 2532, 5777, 2603, 2604, 5796
4381,  406, 2514,  379,   20, 2568, 5778, 2662,  410
4382, 2514, 2515,  380,  379, 5778, 5779, 2663, 2662
4383, 2515, 2516,  381,  380, 5779, 5780, 2664, 2663
4384, 2516, 2517,  382,  381, 5780, 5781, 2665, 2664
4385, 2517, 2518,  383,  382, 5781, 5782, 2666, 2665
4386, 2518, 2519,  384,  383, 5782, 5783, 2667, 2666
4387, 2519, 2520,  385,  384, 5783, 5784, 2668, 2667
4388, 2520, 2521,  386,  385, 5784, 5785, 2669, 2668
4389, 2521, 2522,  387,  386, 5785, 5786, 2670, 2669
4390, 2522, 2523,  388,  387, 5786, 5787, 2671, 2670
4391, 2523, 2524,  389,  388, 5787, 5788, 2672, 2671
4392, 2524, 2525,  390,  389, 5788, 5789, 2673, 2672
4393, 2525, 2526,  391,  390, 5789, 5790, 2674, 2673
4394, 2526, 2527,  392,  391, 5790, 5791, 2675, 2674
4395, 2527, 2528,  393,  392, 5791, 5792, 2676, 2675
4396, 2528, 2529,  394,  393, 5792, 5793, 2677, 2676
4397, 2529, 2530,  395,  394, 5793, 5794, 2678, 2677
4398, 2530, 2531,  396,  395, 5794, 5795, 2679, 2678
4399, 2531, 2532,  397,  396, 5795, 5796, 2680, 2679
4400, 2532,  370,   19,  397, 5796, 2604,  411, 2680
4401,    1,  124,  645,   25,   21,  415, 2681,  460
4402,  124,  123,  664,  645,  415,  416, 2682, 2681
4403,  123,  122,  683,  664,  416,  417, 2683, 2682
4404,  122,  121,  702,  683,  417,  418, 2684, 2683
4405,  121,    8,   89,  702,  418,   22,  419, 2684
4406,   25,  645,  646,   26,  460, 2681, 2685,  459
4407,  645,  664,  665,  646, 2681, 2682, 2686, 2685
4408,  664,  683,  684,  665, 2682, 2683, 2687, 2686
4409,  683,  702,  703,  684, 2683, 2684, 2688, 2687
4410,  702,   89,   88,  703, 2684,  419,  420, 2688
4411,   26,  646,  647,   27,  459, 2685, 2689,  458
4412,  646,  665,  666,  647, 2685, 2686, 2690, 2689
4413,  665,  684,  685,  666, 2686, 2687, 2691, 2690
4414,  684,  703,  704,  685, 2687, 2688, 2692, 2691
4415,  703,   88,   87,  704, 2688,  420,  421, 2692
4416,   27,  647,  648,   28,  458, 2689, 2693,  457
4417,  647,  666,  667,  648, 2689, 2690, 2694, 2693
4418,  666,  685,  686,  667, 2690, 2691, 2695, 2694
4419,  685,  704,  705,  686, 2691, 2692, 2696, 2695
4420,  704,   87,   86,  705, 2692,  421,  422, 2696
4421,   28,  648,  649,   29,  457, 2693, 2697,  456
4422,  648,  667,  668,  649, 2693, 2694, 2698, 2697
4423,  667,  686,  687,  668, 2694, 2695, 2699, 2698
4424,  686,  705,  706,  687, 2695, 2696, 2700, 2699
4425,  705,   86,   85,  706, 2696,  422,  423, 2700
4426,   29,  649,  650,   30,  456, 2697, 2701,  455
4427,  649,  668,  669,  650, 2697, 2698, 2702, 2701
4428,  668,  687,  688,  669, 2698, 2699, 2703, 2702
4429,  687,  706,  707,  688, 2699, 2700, 2704, 2703
4430,  706,   85,   84,  707, 2700,  423,  424, 2704
4431,   30,  650,  651,   31,  455, 2701, 2705,  454
4432,  650,  669,  670,  651, 2701, 2702, 2706, 2705
4433,  669,  688,  689,  670, 2702, 2703, 2707, 2706
4434,  688,  707,  708,  689, 2703, 2704, 2708, 2707
4435,  707,   84,   83,  708, 2704,  424,  425, 2708
4436,   31,  651,  652,   32,  454, 2705, 2709,  453
4437,  651,  670,  671,  652, 2705, 2706, 2710, 2709
4438,  670,  689,  690,  671, 2706, 2707, 2711, 2710
4439,  689,  708,  709,  690, 2707, 2708, 2712, 2711
4440,  708,   83,   82,  709, 2708,  425,  426, 2712
4441,   32,  652,  653,   33,  453, 2709, 2713,  452
4442,  652,  671,  672,  653, 2709, 2710, 2714, 2713
4443,  671,  690,  691,  672, 2710, 2711, 2715, 2714
4444,  690,  709,  710,  691, 2711, 2712, 2716, 2715
4445,  709,   82,   81,  710, 2712,  426,  427, 2716
4446,   33,  653,  654,   34,  452, 2713, 2717,  451
4447,  653,  672,  673,  654, 2713, 2714, 2718, 2717
4448,  672,  691,  692,  673, 2714, 2715, 2719, 2718
4449,  691,  710,  711,  692, 2715, 2716, 2720, 2719
4450,  710,   81,   80,  711, 2716,  427,  428, 2720
4451,   34,  654,  655,   35,  451, 2717, 2721,  450
4452,  654,  673,  674,  655, 2717, 2718, 2722, 2721
4453,  673,  692,  693,  674, 2718, 2719, 2723, 2722
4454,  692,  711,  712,  693, 2719, 2720, 2724, 2723
4455,  711,   80,   79,  712, 2720,  428,  429, 2724
4456,   35,  655,  656,   36,  450, 2721, 2725,  449
4457,  655,  674,  675,  656, 2721, 2722, 2726, 2725
4458,  674,  693,  694,  675, 2722, 2723, 2727, 2726
4459,  693,  712,  713,  694, 2723, 2724, 2728, 2727
4460,  712,   79,   78,  713, 2724,  429,  430, 2728
4461,   36,  656,  657,   37,  449, 2725, 2729,  448
4462,  656,  675,  676,  657, 2725, 2726, 2730, 2729
4463,  675,  694,  695,  676, 2726, 2727, 2731, 2730
4464,  694,  713,  714,  695, 2727, 2728, 2732, 2731
4465,  713,   78,   77,  714, 2728,  430,  431, 2732
4466,   37,  657,  658,   38,  448, 2729, 2733,  447
4467,  657,  676,  677,  658, 2729, 2730, 2734, 2733
4468,  676,  695,  696,  677, 2730, 2731, 2735, 2734
4469,  695,  714,  715,  696, 2731, 2732, 2736, 2735
4470,  714,   77,   76,  715, 2732,  431,  432, 2736
4471,   38,  658,  659,   39,  447, 2733, 2737,  446
4472,  658,  677,  678,  659, 2733, 2734, 2738, 2737
4473,  677,  696,  697,  678, 2734, 2735, 2739, 2738
4474,  696,  715,  716,  697, 2735, 2736, 2740, 2739
4475,  715,   76,   75,  716, 2736,  432,  433, 2740
4476,   39,  659,  660,   40,  446, 2737, 2741,  445
4477,  659,  678,  679,  660, 2737, 2738, 2742, 2741
4478,  678,  697,  698,  679, 2738, 2739, 2743, 2742
4479,  697,  716,  717,  698, 2739, 2740, 2744, 2743
4480,  716,   75,   74,  717, 2740,  433,  434, 2744
4481,   40,  660,  661,   41,  445, 2741, 2745,  444
4482,  660,  679,  680,  661, 2741, 2742, 2746, 2745
4483,  679,  698,  699,  680, 2742, 2743, 2747, 2746
4484,  698,  717,  718,  699, 2743, 2744, 2748, 2747
4485,  717,   74,   73,  718, 2744,  434,  435, 2748
4486,   41,  661,  662,   42,  444, 2745, 2749,  443
4487,  661,  680,  681,  662, 2745, 2746, 2750, 2749
4488,  680,  699,  700,  681, 2746, 2747, 2751, 2750
4489,  699,  718,  719,  700, 2747, 2748, 2752, 2751
4490,  718,   73,   72,  719, 2748,  435,  436, 2752
4491,   42,  662,  663,   43,  443, 2749, 2753,  442
4492,  662,  681,  682,  663, 2749, 2750, 2754, 2753
4493,  681,  700,  701,  682, 2750, 2751, 2755, 2754
4494,  700,  719,  720,  701, 2751, 2752, 2756, 2755
4495,  719,   72,   71,  720, 2752,  436,  437, 2756
4496,   43,  663,  129,    2,  442, 2753,  441,   24
4497,  663,  682,  130,  129, 2753, 2754,  440,  441
4498,  682,  701,  131,  130, 2754, 2755,  439,  440
4499,  701,  720,  132,  131, 2755, 2756,  438,  439
4500,  720,   71,    5,  132, 2756,  437,   23,  438
*Nset, nset=_PickedSet10, internal, generate
    1,  5796,     1
*Elset, elset=_PickedSet10, internal, generate
    1,  4500,     1
*Elset, elset=_Top_S2, internal
   1,   2,   3,   4,   5,   6,   7,   8,   9,  10,  11,  12,  13,  14,  15,  16
  17,  18,  19,  20,  21,  22,  23,  24,  25,  26,  27,  28,  29,  30,  31,  32
  33,  34,  35,  36,  37,  38,  39,  40,  41,  42,  43,  44,  45,  46,  47,  48
  49,  50,  51,  52,  53,  54,  55,  56,  57,  58,  59,  60,  61,  62,  63,  64
  65,  66,  67,  68,  69,  70,  71,  72,  73,  74,  75,  76,  77,  78,  79,  80
  81,  82,  83,  84,  85,  86,  87,  88,  89,  90,  91,  92,  93,  94,  95,  96
  97,  98,  99, 100, 501, 502, 503, 504, 505, 506, 507, 508, 509, 510, 511, 512
 513, 514, 515, 516, 517, 518, 519, 520, 521, 522, 523, 524, 525, 526, 527, 528
 529, 530, 531, 532, 533, 534, 535, 536, 537, 538, 539, 540, 541, 542, 543, 544
 545, 546, 547, 548, 549, 550, 551, 552, 553, 554, 555, 556, 557, 558, 559, 560
 561, 562, 563, 564, 565, 566, 567, 568, 569, 570, 571, 572, 573, 574, 575, 576
 577, 578, 579, 580, 581, 582, 583, 584, 585, 586, 587, 588, 589, 590, 591, 592
 593, 594, 595, 596, 597, 598, 599, 600, 601, 602, 603, 604, 605, 606, 607, 608
 609, 610, 611, 612, 613, 614, 615, 616, 617, 618, 619, 620, 621, 622, 623, 624
 625, 626, 627, 628, 629, 630, 631, 632, 633, 634, 635, 636, 637, 638, 639, 640
 641, 642, 643, 644, 645, 646, 647, 648, 649, 650, 651, 652, 653, 654, 655, 656
 657, 658, 659, 660, 661, 662, 663, 664, 665, 666, 667, 668, 669, 670, 671, 672
 673, 674, 675, 676, 677, 678, 679, 680, 681, 682, 683, 684, 685, 686, 687, 688
 689, 690, 691, 692, 693, 694, 695, 696, 697, 698, 699, 700, 701, 702, 703, 704
 705, 706, 707, 708, 709, 710, 711, 712, 713, 714, 715, 716, 717, 718, 719, 720
 721, 722, 723, 724, 725, 726, 727, 728, 729, 730, 731, 732, 733, 734, 735, 736
 737, 738, 739, 740, 741, 742, 743, 744, 745, 746, 747, 748, 749, 750, 751, 752
 753, 754, 755, 756, 757, 758, 759, 760
*Elset, elset=_Top_S6, internal, generate
 4401,  4496,     5
*Elset, elset=_Top_S1, internal
 3081, 3082, 3083, 3084, 3085, 3086, 3087, 3088, 3089, 3090, 3091, 3092, 3093, 3094, 3095, 3096
 3097, 3098, 3099, 3100, 3101, 3102, 3103, 3104, 3105, 3106, 3107, 3108, 3109, 3110, 3111, 3112
 3113, 3114, 3115, 3116, 3117, 3118, 3119, 3120, 3121, 3122, 3123, 3124, 3125, 3126, 3127, 3128
 3129, 3130, 3131, 3132, 3133, 3134, 3135, 3136, 3137, 3138, 3139, 3140, 3141, 3142, 3143, 3144
 3145, 3146, 3147, 3148, 3149, 3150, 3151, 3152, 3153, 3154, 3155, 3156, 3157, 3158, 3159, 3160
 3161, 3162, 3163, 3164, 3165, 3166, 3167, 3168, 3169, 3170, 3171, 3172, 3173, 3174, 3175, 3176
 3177, 3178, 3179, 3180, 3181, 3182, 3183, 3184, 3185, 3186, 3187, 3188, 3189, 3190, 3191, 3192
 3193, 3194, 3195, 3196, 3197, 3198, 3199, 3200, 3201, 3202, 3203, 3204, 3205, 3206, 3207, 3208
 3209, 3210, 3211, 3212, 3213, 3214, 3215, 3216, 3217, 3218, 3219, 3220, 3221, 3222, 3223, 3224
 3225, 3226, 3227, 3228, 3229, 3230, 3231, 3232, 3233, 3234, 3235, 3236, 3237, 3238, 3239, 3240
 3241, 3242, 3243, 3244, 3245, 3246, 3247, 3248, 3249, 3250, 3251, 3252, 3253, 3254, 3255, 3256
 3257, 3258, 3259, 3260, 3261, 3262, 3263, 3264, 3265, 3266, 3267, 3268, 3269, 3270, 3271, 3272
 3273, 3274, 3275, 3276, 3277, 3278, 3279, 3280, 3281, 3282, 3283, 3284, 3285, 3286, 3287, 3288
 3289, 3290, 3291, 3292, 3293, 3294, 3295, 3296, 3297, 3298, 3299, 3300, 3301, 3302, 3303, 3304
 3305, 3306, 3307, 3308, 3309, 3310, 3311, 3312, 3313, 3314, 3315, 3316, 3317, 3318, 3319, 3320
 3321, 3322, 3323, 3324, 3325, 3326, 3327, 3328, 3329, 3330, 3331, 3332, 3333, 3334, 3335, 3336
 3337, 3338, 3339, 3340, 3341, 3342, 3343, 3344, 3345, 3346, 3347, 3348, 3349, 3350, 3351, 3352
 3353, 3354, 3355, 3356, 3357, 3358, 3359, 3360, 3361, 3362, 3363, 3364, 3365, 3366, 3367, 3368
 3369, 3370, 3371, 3372, 3373, 3374, 3375, 3376, 3377, 3378, 3379, 3380, 3381, 3382, 3383, 3384
 3385, 3386, 3387, 3388, 3389, 3390, 3391, 3392, 3393, 3394, 3395, 3396, 3397, 3398, 3399, 3400
 4201, 4202, 4203, 4204, 4205, 4206, 4207, 4208, 4209, 4210, 4211, 4212, 4213, 4214, 4215, 4216
 4217, 4218, 4219, 4220, 4221, 4222, 4223, 4224, 4225, 4226, 4227, 4228, 4229, 4230, 4231, 4232
 4233, 4234, 4235, 4236, 4237, 4238, 4239, 4240, 4241, 4242, 4243, 4244, 4245, 4246, 4247, 4248
 4249, 4250, 4251, 4252, 4253, 4254, 4255, 4256, 4257, 4258, 4259, 4260, 4261, 4262, 4263, 4264
 4265, 4266, 4267, 4268, 4269, 4270, 4271, 4272, 4273, 4274, 4275, 4276, 4277, 4278, 4279, 4280
 4281, 4282, 4283, 4284, 4285, 4286, 4287, 4288, 4289, 4290, 4291, 4292, 4293, 4294, 4295, 4296
 4297, 4298, 4299, 4300, 4301, 4302, 4303, 4304, 4305, 4306, 4307, 4308, 4309, 4310, 4311, 4312
 4313, 4314, 4315, 4316, 4317, 4318, 4319, 4320, 4321, 4322, 4323, 4324, 4325, 4326, 4327, 4328
 4329, 4330, 4331, 4332, 4333, 4334, 4335, 4336, 4337, 4338, 4339, 4340, 4341, 4342, 4343, 4344
 4345, 4346, 4347, 4348, 4349, 4350, 4351, 4352, 4353, 4354, 4355, 4356, 4357, 4358, 4359, 4360
 4361, 4362, 4363, 4364, 4365, 4366, 4367, 4368, 4369, 4370, 4371, 4372, 4373, 4374, 4375, 4376
 4377, 4378, 4379, 4380, 4381, 4382, 4383, 4384, 4385, 4386, 4387, 4388, 4389, 4390, 4391, 4392
 4393, 4394, 4395, 4396, 4397, 4398, 4399, 4400
*Surface, type=ELEMENT, name=Top
_Top_S2, S2
_Top_S6, S6
_Top_S1, S1
*Elset, elset=_Bottom_S4, internal, generate
 4405,  4500,     5
*Elset, elset=_Bottom_S1, internal
  401,  402,  403,  404,  405,  406,  407,  408,  409,  410,  411,  412,  413,  414,  415,  416
  417,  418,  419,  420,  421,  422,  423,  424,  425,  426,  427,  428,  429,  430,  431,  432
  433,  434,  435,  436,  437,  438,  439,  440,  441,  442,  443,  444,  445,  446,  447,  448
  449,  450,  451,  452,  453,  454,  455,  456,  457,  458,  459,  460,  461,  462,  463,  464
  465,  466,  467,  468,  469,  470,  471,  472,  473,  474,  475,  476,  477,  478,  479,  480
  481,  482,  483,  484,  485,  486,  487,  488,  489,  490,  491,  492,  493,  494,  495,  496
  497,  498,  499,  500, 1541, 1542, 1543, 1544, 1545, 1546, 1547, 1548, 1549, 1550, 1551, 1552
 1553, 1554, 1555, 1556, 1557, 1558, 1559, 1560, 1561, 1562, 1563, 1564, 1565, 1566, 1567, 1568
 1569, 1570, 1571, 1572, 1573, 1574, 1575, 1576, 1577, 1578, 1579, 1580, 1581, 1582, 1583, 1584
 1585, 1586, 1587, 1588, 1589, 1590, 1591, 1592, 1593, 1594, 1595, 1596, 1597, 1598, 1599, 1600
 1601, 1602, 1603, 1604, 1605, 1606, 1607, 1608, 1609, 1610, 1611, 1612, 1613, 1614, 1615, 1616
 1617, 1618, 1619, 1620, 1621, 1622, 1623, 1624, 1625, 1626, 1627, 1628, 1629, 1630, 1631, 1632
 1633, 1634, 1635, 1636, 1637, 1638, 1639, 1640, 1641, 1642, 1643, 1644, 1645, 1646, 1647, 1648
 1649, 1650, 1651, 1652, 1653, 1654, 1655, 1656, 1657, 1658, 1659, 1660, 1661, 1662, 1663, 1664
 1665, 1666, 1667, 1668, 1669, 1670, 1671, 1672, 1673, 1674, 1675, 1676, 1677, 1678, 1679, 1680
 1681, 1682, 1683, 1684, 1685, 1686, 1687, 1688, 1689, 1690, 1691, 1692, 1693, 1694, 1695, 1696
 1697, 1698, 1699, 1700, 1701, 1702, 1703, 1704, 1705, 1706, 1707, 1708, 1709, 1710, 1711, 1712
 1713, 1714, 1715, 1716, 1717, 1718, 1719, 1720, 1721, 1722, 1723, 1724, 1725, 1726, 1727, 1728
 1729, 1730, 1731, 1732, 1733, 1734, 1735, 1736, 1737, 1738, 1739, 1740, 1741, 1742, 1743, 1744
 1745, 1746, 1747, 1748, 1749, 1750, 1751, 1752, 1753, 1754, 1755, 1756, 1757, 1758, 1759, 1760
 1761, 1762, 1763, 1764, 1765, 1766, 1767, 1768, 1769, 1770, 1771, 1772, 1773, 1774, 1775, 1776
 1777, 1778, 1779, 1780, 1781, 1782, 1783, 1784, 1785, 1786, 1787, 1788, 1789, 1790, 1791, 1792
 1793, 1794, 1795, 1796, 1797, 1798, 1799, 1800
*Elset, elset=_Bottom_S2, internal
 1801, 1802, 1803, 1804, 1805, 1806, 1807, 1808, 1809, 1810, 1811, 1812, 1813, 1814, 1815, 1816
 1817, 1818, 1819, 1820, 1821, 1822, 1823, 1824, 1825, 1826, 1827, 1828, 1829, 1830, 1831, 1832
 1833, 1834, 1835, 1836, 1837, 1838, 1839, 1840, 1841, 1842, 1843, 1844, 1845, 1846, 1847, 1848
 1849, 1850, 1851, 1852, 1853, 1854, 1855, 1856, 1857, 1858, 1859, 1860, 1861, 1862, 1863, 1864
 1865, 1866, 1867, 1868, 1869, 1870, 1871, 1872, 1873, 1874, 1875, 1876, 1877, 1878, 1879, 1880
 1881, 1882, 1883, 1884, 1885, 1886, 1887, 1888, 1889, 1890, 1891, 1892, 1893, 1894, 1895, 1896
 1897, 1898, 1899, 1900, 1901, 1902, 1903, 1904, 1905, 1906, 1907, 1908, 1909, 1910, 1911, 1912
 1913, 1914, 1915, 1916, 1917, 1918, 1919, 1920, 1921, 1922, 1923, 1924, 1925, 1926, 1927, 1928
 1929, 1930, 1931, 1932, 1933, 1934, 1935, 1936, 1937, 1938, 1939, 1940, 1941, 1942, 1943, 1944
 1945, 1946, 1947, 1948, 1949, 1950, 1951, 1952, 1953, 1954, 1955, 1956, 1957, 1958, 1959, 1960
 1961, 1962, 1963, 1964, 1965, 1966, 1967, 1968, 1969, 1970, 1971, 1972, 1973, 1974, 1975, 1976
 1977, 1978, 1979, 1980, 1981, 1982, 1983, 1984, 1985, 1986, 1987, 1988, 1989, 1990, 1991, 1992
 1993, 1994, 1995, 1996, 1997, 1998, 1999, 2000, 2001, 2002, 2003, 2004, 2005, 2006, 2007, 2008
 2009, 2010, 2011, 2012, 2013, 2014, 2015, 2016, 2017, 2018, 2019, 2020, 2021, 2022, 2023, 2024
 2025, 2026, 2027, 2028, 2029, 2030, 2031, 2032, 2033, 2034, 2035, 2036, 2037, 2038, 2039, 2040
 2041, 2042, 2043, 2044, 2045, 2046, 2047, 2048, 2049, 2050, 2051, 2052, 2053, 2054, 2055, 2056
 2057, 2058, 2059, 2060, 2061, 2062, 2063, 2064, 2065, 2066, 2067, 2068, 2069, 2070, 2071, 2072
 2073, 2074, 2075, 2076, 2077, 2078, 2079, 2080, 2081, 2082, 2083, 2084, 2085, 2086, 2087, 2088
 2089, 2090, 2091, 2092, 2093, 2094, 2095, 2096, 2097, 2098, 2099, 2100, 2101, 2102, 2103, 2104
 2105, 2106, 2107, 2108, 2109, 2110, 2111, 2112, 2113, 2114, 2115, 2116, 2117, 2118, 2119, 2120
 3401, 3402, 3403, 3404, 3405, 3406, 3407, 3408, 3409, 3410, 3411, 3412, 3413, 3414, 3415, 3416
 3417, 3418, 3419, 3420, 3421, 3422, 3423, 3424, 3425, 3426, 3427, 3428, 3429, 3430, 3431, 3432
 3433, 3434, 3435, 3436, 3437, 3438, 3439, 3440, 3441, 3442, 3443, 3444, 3445, 3446, 3447, 3448
 3449, 3450, 3451, 3452, 3453, 3454, 3455, 3456, 3457, 3458, 3459, 3460, 3461, 3462, 3463, 3464
 3465, 3466, 3467, 3468, 3469, 3470, 3471, 3472, 3473, 3474, 3475, 3476, 3477, 3478, 3479, 3480
 3481, 3482, 3483, 3484, 3485, 3486, 3487, 3488, 3489, 3490, 3491, 3492, 3493, 3494, 3495, 3496
 3497, 3498, 3499, 3500, 3501, 3502, 3503, 3504, 3505, 3506, 3507, 3508, 3509, 3510, 3511, 3512
 3513, 3514, 3515, 3516, 3517, 3518, 3519, 3520, 3521, 3522, 3523, 3524, 3525, 3526, 3527, 3528
 3529, 3530, 3531, 3532, 3533, 3534, 3535, 3536, 3537, 3538, 3539, 3540, 3541, 3542, 3543, 3544
 3545, 3546, 3547, 3548, 3549, 3550, 3551, 3552, 3553, 3554, 3555, 3556, 3557, 3558, 3559, 3560
 3561, 3562, 3563, 3564, 3565, 3566, 3567, 3568, 3569, 3570, 3571, 3572, 3573, 3574, 3575, 3576
 3577, 3578, 3579, 3580, 3581, 3582, 3583, 3584, 3585, 3586, 3587, 3588, 3589, 3590, 3591, 3592
 3593, 3594, 3595, 3596, 3597, 3598, 3599, 3600
*Surface, type=ELEMENT, name=Bottom
_Bottom_S4, S4
_Bottom_S1, S1
_Bottom_S2, S2
*Elset, elset=_Front_S2, internal, generate
 4401,  4500,     1
*Surface, type=ELEMENT, name=Front
_Front_S2, S2
*Elset, elset=_Back_S5, internal
 3581, 3582, 3583, 3584, 3585, 3586, 3587, 3588, 3589, 3590, 3591, 3592, 3593, 3594, 3595, 3596
 3597, 3598, 3599, 3600, 3781, 3782, 3783, 3784, 3785, 3786, 3787, 3788, 3789, 3790, 3791, 3792
 3793, 3794, 3795, 3796, 3797, 3798, 3799, 3800, 3981, 3982, 3983, 3984, 3985, 3986, 3987, 3988
 3989, 3990, 3991, 3992, 3993, 3994, 3995, 3996, 3997, 3998, 3999, 4000, 4181, 4182, 4183, 4184
 4185, 4186, 4187, 4188, 4189, 4190, 4191, 4192, 4193, 4194, 4195, 4196, 4197, 4198, 4199, 4200
 4381, 4382, 4383, 4384, 4385, 4386, 4387, 4388, 4389, 4390, 4391, 4392, 4393, 4394, 4395, 4396
 4397, 4398, 4399, 4400
*Surface, type=ELEMENT, name=Back
_Back_S5, S5
** Section: Sec_ActiveLayer
*Solid Section, elset=_PickedSet10, material=ActiveLayer_Porous_Calibratable
,
*End Part
**  
*Part, name=ElasticRoller_WithShoulders
*Node
      1,          50.,           0.,         130.
      2,          50.,           0.,         140.
      3,          50.,           0.,          10.
      4,          50.,           0.,           0.
      5,   48.9764977,   10.0649261,         130.
      6,   45.9478912,   19.7177925,         130.
      7,   41.0381737,   28.5634098,         130.
      8,   34.4483452,   36.2396393,         130.
      9,   26.4482002,   42.4322128,         130.
     10,    17.365263,   46.8876076,         130.
     11,   7.57138872,   49.4234161,         130.
     12,  -2.53245854,   49.9358253,         130.
     13,  -12.5326262,   48.4038544,         130.
     14,  -22.0197067,   44.8902283,         130.
     15,   -30.605299,   39.5387878,         130.
     16,  -37.9379044,   32.5686226,         130.
     17,  -43.7173309,   24.2650986,         130.
     18,  -47.7069626,   14.9681559,         130.
     19,  -49.7434654,   5.05841589,         130.
     20,  -49.7434654,  -5.05841589,         130.
     21,  -47.7069626,  -14.9681559,         130.
     22,  -43.7173309,  -24.2650986,         130.
     23,  -37.9379044,  -32.5686226,         130.
     24,   -30.605299,  -39.5387878,         130.
     25,  -22.0197067,  -44.8902283,         130.
     26,  -12.5326262,  -48.4038544,         130.
     27,  -2.53245854,  -49.9358253,         130.
     28,   7.57138872,  -49.4234161,         130.
     29,    17.365263,  -46.8876076,         130.
     30,   26.4482002,  -42.4322128,         130.
     31,   34.4483452,  -36.2396393,         130.
     32,   41.0381737,  -28.5634098,         130.
     33,   45.9478912,  -19.7177925,         130.
     34,   48.9764977,  -10.0649261,         130.
     35,   48.9764977,  -10.0649261,         140.
     36,   45.9478912,  -19.7177925,         140.
     37,   41.0381737,  -28.5634098,         140.
     38,   34.4483452,  -36.2396393,         140.
     39,   26.4482002,  -42.4322128,         140.
     40,    17.365263,  -46.8876076,         140.
     41,   7.57138872,  -49.4234161,         140.
     42,  -2.53245854,  -49.9358253,         140.
     43,  -12.5326262,  -48.4038544,         140.
     44,  -22.0197067,  -44.8902283,         140.
     45,   -30.605299,  -39.5387878,         140.
     46,  -37.9379044,  -32.5686226,         140.
     47,  -43.7173309,  -24.2650986,         140.
     48,  -47.7069626,  -14.9681559,         140.
     49,  -49.7434654,  -5.05841589,         140.
     50,  -49.7434654,   5.05841589,         140.
     51,  -47.7069626,   14.9681559,         140.
     52,  -43.7173309,   24.2650986,         140.
     53,  -37.9379044,   32.5686226,         140.
     54,   -30.605299,   39.5387878,         140.
     55,  -22.0197067,   44.8902283,         140.
     56,  -12.5326262,   48.4038544,         140.
     57,  -2.53245854,   49.9358253,         140.
     58,   7.57138872,   49.4234161,         140.
     59,    17.365263,   46.8876076,         140.
     60,   26.4482002,   42.4322128,         140.
     61,   34.4483452,   36.2396393,         140.
     62,   41.0381737,   28.5634098,         140.
     63,   45.9478912,   19.7177925,         140.
     64,   48.9764977,   10.0649261,         140.
     65,   48.9764977,   10.0649261,          10.
     66,   45.9478912,   19.7177925,          10.
     67,   41.0381737,   28.5634098,          10.
     68,   34.4483452,   36.2396393,          10.
     69,   26.4482002,   42.4322128,          10.
     70,    17.365263,   46.8876076,          10.
     71,   7.57138872,   49.4234161,          10.
     72,  -2.53245854,   49.9358253,          10.
     73,  -12.5326262,   48.4038544,          10.
     74,  -22.0197067,   44.8902283,          10.
     75,   -30.605299,   39.5387878,          10.
     76,  -37.9379044,   32.5686226,          10.
     77,  -43.7173309,   24.2650986,          10.
     78,  -47.7069626,   14.9681559,          10.
     79,  -49.7434654,   5.05841589,          10.
     80,  -49.7434654,  -5.05841589,          10.
     81,  -47.7069626,  -14.9681559,          10.
     82,  -43.7173309,  -24.2650986,          10.
     83,  -37.9379044,  -32.5686226,          10.
     84,   -30.605299,  -39.5387878,          10.
     85,  -22.0197067,  -44.8902283,          10.
     86,  -12.5326262,  -48.4038544,          10.
     87,  -2.53245854,  -49.9358253,          10.
     88,   7.57138872,  -49.4234161,          10.
     89,    17.365263,  -46.8876076,          10.
     90,   26.4482002,  -42.4322128,          10.
     91,   34.4483452,  -36.2396393,          10.
     92,   41.0381737,  -28.5634098,          10.
     93,   45.9478912,  -19.7177925,          10.
     94,   48.9764977,  -10.0649261,          10.
     95,   48.9764977,   10.0649261,           0.
     96,   45.9478912,   19.7177925,           0.
     97,   41.0381737,   28.5634098,           0.
     98,   34.4483452,   36.2396393,           0.
     99,   26.4482002,   42.4322128,           0.
    100,    17.365263,   46.8876076,           0.
    101,   7.57138872,   49.4234161,           0.
    102,  -2.53245854,   49.9358253,           0.
    103,  -12.5326262,   48.4038544,           0.
    104,  -22.0197067,   44.8902283,           0.
    105,   -30.605299,   39.5387878,           0.
    106,  -37.9379044,   32.5686226,           0.
    107,  -43.7173309,   24.2650986,           0.
    108,  -47.7069626,   14.9681559,           0.
    109,  -49.7434654,   5.05841589,           0.
    110,  -49.7434654,  -5.05841589,           0.
    111,  -47.7069626,  -14.9681559,           0.
    112,  -43.7173309,  -24.2650986,           0.
    113,  -37.9379044,  -32.5686226,           0.
    114,   -30.605299,  -39.5387878,           0.
    115,  -22.0197067,  -44.8902283,           0.
    116,  -12.5326262,  -48.4038544,           0.
    117,  -2.53245854,  -49.9358253,           0.
    118,   7.57138872,  -49.4234161,           0.
    119,    17.365263,  -46.8876076,           0.
    120,   26.4482002,  -42.4322128,           0.
    121,   34.4483452,  -36.2396393,           0.
    122,   41.0381737,  -28.5634098,           0.
    123,   45.9478912,  -19.7177925,           0.
    124,   48.9764977,  -10.0649261,           0.
    125,  -21.0117207,   34.9200592,         130.
    126,  -28.0651989,   30.8840294,         130.
    127,  -31.3021774,   22.3325996,         130.
    128,  -39.6756172,   8.40536404,         130.
    129,  -41.0527458, -0.856300771,         130.
    130,  -42.0711021,  -8.71700859,         130.
    131,    -14.55791,  -38.5706482,         130.
    132,   39.0498848,   11.6969452,         130.
    133,   35.5309944,   20.1773663,         130.
    134,   25.1782379,   31.7837219,         130.
    135,   17.3397732,   37.1916847,         130.
    136,    17.795372,  -36.5068398,         130.
    137,   26.0889206,  -33.3195724,         130.
    138,   31.2215748,  -26.6054611,         130.
    139,   38.7729263,  -12.6970406,         130.
    140,   40.6646309,  -3.64873099,         130.
    141,   42.1527367,   4.27329397,         130.
    142,   32.2121506,   27.5014935,         130.
    143,  -6.29298687,   39.9215813,         130.
    144,  -38.5526009,   16.3887215,         130.
    145,  -33.0448647,  -23.2262955,         130.
    146,   6.48895597,  -41.0108452,         130.
    147,   37.0676575,  -20.6477585,         130.
    148,    25.107502,    20.962532,         130.
    149,   20.1445007,  -25.4997692,         130.
    150,   28.3633842,  -15.6567183,         130.
    151,  -20.6380081,   25.2070427,         130.
    152,  -30.7129745,   11.6356707,         130.
    153,   32.6722145,   3.61808896,         130.
    154,   -32.077652,    2.0707376,         130.
    155,   30.9346409,   13.2663088,         130.
    156,   32.4915657,  -6.30346584,         130.
    157,    16.190094,   27.5116081,         130.
    158,   10.7235622,   41.5916023,         130.
    159,   -5.1466794,  -40.4432907,         130.
    160,  -38.1834564,  -15.4076948,         130.
    161,   -27.402874,  -30.6456928,         130.
    162,  -14.5268278,   39.6042976,         130.
    163,   -28.684082,    -14.24191,         130.
    164,  -22.7637539,  -21.9672909,         130.
    165,  -7.78554058,  -31.2646866,         130.
    166,   -22.440506,  -36.7194824,         130.
    167,   3.00409675,   40.9435272,         130.
    168,   14.2927675,   16.9487572,         130.
    169,   22.3091145,  -3.50391912,         130.
    170,  -22.7977695,   4.87406921,         130.
    171,    16.799614,  -14.6148939,         130.
    172,   22.7471447,   9.35740662,         130.
    173, -0.146529868,   31.6126652,         130.
    174,  -18.4234543,  -12.3445711,         130.
    175,  0.801431537,   -33.439373,         130.
    176,   10.8870182,  -21.8730679,         130.
    177,  -21.6860981,   15.0050564,         130.
    178,  -25.2555962,  -4.86754704,         130.
    179,   6.85699463,   24.1954784,         130.
    180,   11.3792391,   4.36102057,         130.
    181,   11.9726458,  -6.75538683,         130.
    182,   1.13434613,   -23.931263,         130.
    183,   9.54193783,  -30.3768597,         130.
    184,   -10.761302,  -20.5451965,         130.
    185,   6.89936113,  -14.5556221,         130.
    186,  -34.5541039,  -7.00328732,         130.
    187,  -13.7370901,   7.98144007,         130.
    188,   8.99466515,    33.841095,         130.
    189,   4.56273222,   13.8638868,         130.
    190,  -15.7583637,  -2.10481954,         130.
    191,   -2.6294663,   21.4934254,         130.
    192,   2.25873923,  -4.99385786,         130.
    193,   1.49514902,   5.14231777,         130.
    194,  -17.6186485,  -29.9521656,         130.
    195,  -12.3330421,   18.4802761,         130.
    196,  -8.43517113,  -8.95490837,         130.
    197,  -6.45120478,   1.39651787,         130.
    198,   -11.082654,   30.1770496,         130.
    199,  -1.78080523,  -14.5961695,         130.
    200,  -4.84882021,   11.3929768,         130.
    201,  -22.6316452,   36.4606361,         140.
    202,  -27.7262955,   30.3257904,         140.
    203,  -33.5496635,   22.9582195,         140.
    204,  -39.6429329,   8.59032536,         140.
    205,  -41.0354958, -0.794931114,         140.
    206,  -42.0735016,  -8.69816208,         140.
    207,  -14.5687323,  -38.5564957,         140.
    208,   39.1603737,   11.4945745,         140.
    209,    35.616848,   19.9551506,         140.
    210,   24.9891281,   31.7448826,         140.
    211,   16.2594566,   37.1310616,         140.
    212,   17.7884102,  -36.5015106,         140.
    213,   26.0875282,  -33.3185081,         140.
    214,   31.2380695,  -26.6091061,         140.
    215,   38.7595482,  -12.6952419,         140.
    216,   40.7062836,  -3.72878528,         140.
    217,   42.2719498,   4.11364079,         140.
    218,   37.0883522,  -20.6527138,         140.
    219,   6.48199415,  -41.0055199,         140.
    220,  -33.0448647,  -23.2262955,         140.
    221,  -38.8754845,   16.7313156,         140.
    222,  -5.28033113,    40.456398,         140.
    223,   32.2286224,   27.3627739,         140.
    224,   20.1601753,  -25.5389862,         140.
    225,   -23.588419,   21.7189083,         140.
    226,   25.0121498,   20.6085892,         140.
    227,   30.8097878,   12.6600008,         140.
    228,  -29.7109127,   12.9104366,         140.
    229,   32.6178894,  -6.71279716,         140.
    230,  -31.9545937,   2.24234605,         140.
    231,   28.5232735,  -15.8604393,         140.
    232,   32.8511696,   3.16162968,         140.
    233,   15.2882338,    27.081028,         140.
    234,   9.55625629,   41.8509521,         140.
    235,  -27.4136963,  -30.6315422,         140.
    236,  -38.1887321,  -15.3990774,         140.
    237,  -5.14964294,  -40.4400444,         140.
    238,  -14.9025736,   38.3571396,         140.
    239,  -8.45871353,   30.8491116,         140.
    240,  -28.7858219,  -14.1792116,         140.
    241,  -22.9083214,  -21.8074303,         140.
    242,  -7.90655613,  -31.1228123,         140.
    243,  -22.4578228,  -36.6968384,         140.
    244,   2.66972518,   42.9337387,         140.
    245,   16.7372246,  -14.6236134,         140.
    246,   21.7747345,   8.55320358,         140.
    247,    13.998332,    16.780859,         140.
    248,  -18.3283634,   13.2713709,         140.
    249,   22.6843662,  -4.24846554,         140.
    250,  -22.2399673,   4.29394293,         140.
    251,  -12.3002176,   5.61827421,         140.
    252,  -18.7674179,  -12.3828259,         140.
    253,  0.715331614,  -33.3549919,         140.
    254,   6.76157618,   22.4753418,         140.
    255,   10.7342377,  -21.7537575,         140.
    256,  -25.2809258,  -5.04507589,         140.
    257,  -13.2637367,   21.8903332,         140.
    258,   11.1154633,  -6.07048512,         140.
    259,  0.869043827,  -23.7834015,         140.
    260,   9.45819855,  -30.3230286,         140.
    261,   4.26174068,   33.1419487,         140.
    262,  -15.5191898,  -3.02391267,         140.
    263,  -11.1016474,  -20.5484905,         140.
    264,   3.29311538,   13.2655668,         140.
    265,   6.33808374,  -14.7613087,         140.
    266,  -34.5531807,  -6.97901869,         140.
    267,  -7.82552624,   13.8557835,         140.
    268,   14.4764252,   1.83327258,         140.
    269,   4.63290739,   2.32509327,         140.
    270,   11.6351032,   8.55159855,         140.
    271,  -5.80357313, -0.881101191,         140.
    272,  -3.60065889,   6.83672333,         140.
    273,  -2.53859067,   22.5796814,         140.
    274,  0.827712476,  -7.37726974,         140.
    275,  -17.7261295,  -29.8939342,         140.
    276,  -8.79075336,  -9.89186287,         140.
    277,  -18.4285641,   29.9336529,         140.
    278,  -2.37151217,  -15.2724667,         140.
    279,  -21.0117207,   34.9200592,          10.
    280,  -28.0651989,   30.8840294,          10.
    281,  -31.3021774,   22.3325996,          10.
    282,  -39.6756172,   8.40536404,          10.
    283,  -41.0527458, -0.856300771,          10.
    284,  -42.0711021,  -8.71700859,          10.
    285,    -14.55791,  -38.5706482,          10.
    286,   39.0498848,   11.6969452,          10.
    287,   35.5309944,   20.1773663,          10.
    288,   25.1782379,   31.7837219,          10.
    289,   17.3397732,   37.1916847,          10.
    290,    17.795372,  -36.5068398,          10.
    291,   26.0889206,  -33.3195724,          10.
    292,   31.2215748,  -26.6054611,          10.
    293,   38.7729263,  -12.6970406,          10.
    294,   40.6646309,  -3.64873099,          10.
    295,   42.1527367,   4.27329397,          10.
    296,   32.2121506,   27.5014935,          10.
    297,  -6.29298687,   39.9215813,          10.
    298,  -38.5526009,   16.3887215,          10.
    299,  -33.0448647,  -23.2262955,          10.
    300,   6.48895597,  -41.0108452,          10.
    301,   37.0676575,  -20.6477585,          10.
    302,    25.107502,    20.962532,          10.
    303,   20.1445007,  -25.4997692,          10.
    304,   28.3633842,  -15.6567183,          10.
    305,  -20.6380081,   25.2070427,          10.
    306,  -30.7129745,   11.6356707,          10.
    307,   32.6722145,   3.61808896,          10.
    308,   -32.077652,    2.0707376,          10.
    309,   30.9346409,   13.2663088,          10.
    310,   32.4915657,  -6.30346584,          10.
    311,    16.190094,   27.5116081,          10.
    312,   10.7235622,   41.5916023,          10.
    313,   -5.1466794,  -40.4432907,          10.
    314,  -38.1834564,  -15.4076948,          10.
    315,   -27.402874,  -30.6456928,          10.
    316,  -14.5268278,   39.6042976,          10.
    317,   -28.684082,    -14.24191,          10.
    318,  -22.7637539,  -21.9672909,          10.
    319,  -7.78554058,  -31.2646866,          10.
    320,   -22.440506,  -36.7194824,          10.
    321,   3.00409675,   40.9435272,          10.
    322,   14.2927675,   16.9487572,          10.
    323,   22.3091145,  -3.50391912,          10.
    324,  -22.7977695,   4.87406921,          10.
    325,    16.799614,  -14.6148939,          10.
    326,   22.7471447,   9.35740662,          10.
    327, -0.146529868,   31.6126652,          10.
    328,  -18.4234543,  -12.3445711,          10.
    329,  0.801431537,   -33.439373,          10.
    330,   10.8870182,  -21.8730679,          10.
    331,  -21.6860981,   15.0050564,          10.
    332,  -25.2555962,  -4.86754704,          10.
    333,   6.85699463,   24.1954784,          10.
    334,   11.3792391,   4.36102057,          10.
    335,   11.9726458,  -6.75538683,          10.
    336,   1.13434613,   -23.931263,          10.
    337,   9.54193783,  -30.3768597,          10.
    338,   -10.761302,  -20.5451965,          10.
    339,   6.89936113,  -14.5556221,          10.
    340,  -34.5541039,  -7.00328732,          10.
    341,  -13.7370901,   7.98144007,          10.
    342,   8.99466515,    33.841095,          10.
    343,   4.56273222,   13.8638868,          10.
    344,  -15.7583637,  -2.10481954,          10.
    345,   -2.6294663,   21.4934254,          10.
    346,   2.25873923,  -4.99385786,          10.
    347,   1.49514902,   5.14231777,          10.
    348,  -17.6186485,  -29.9521656,          10.
    349,  -12.3330421,   18.4802761,          10.
    350,  -8.43517113,  -8.95490837,          10.
    351,  -6.45120478,   1.39651787,          10.
    352,   -11.082654,   30.1770496,          10.
    353,  -1.78080523,  -14.5961695,          10.
    354,  -4.84882021,   11.3929768,          10.
    355,   48.9764977,   10.0649261,          20.
    356,   45.9478912,   19.7177925,          20.
    357,   41.0381737,   28.5634098,          20.
    358,   34.4483452,   36.2396393,          20.
    359,   26.4482002,   42.4322128,          20.
    360,    17.365263,   46.8876076,          20.
    361,   7.57138872,   49.4234161,          20.
    362,  -2.53245854,   49.9358253,          20.
    363,  -12.5326262,   48.4038544,          20.
    364,  -22.0197067,   44.8902283,          20.
    365,   -30.605299,   39.5387878,          20.
    366,  -37.9379044,   32.5686226,          20.
    367,  -43.7173309,   24.2650986,          20.
    368,  -47.7069626,   14.9681559,          20.
    369,  -49.7434654,   5.05841589,          20.
    370,  -49.7434654,  -5.05841589,          20.
    371,  -47.7069626,  -14.9681559,          20.
    372,  -43.7173309,  -24.2650986,          20.
    373,  -37.9379044,  -32.5686226,          20.
    374,   -30.605299,  -39.5387878,          20.
    375,  -22.0197067,  -44.8902283,          20.
    376,  -12.5326262,  -48.4038544,          20.
    377,  -2.53245854,  -49.9358253,          20.
    378,   7.57138872,  -49.4234161,          20.
    379,    17.365263,  -46.8876076,          20.
    380,   26.4482002,  -42.4322128,          20.
    381,   34.4483452,  -36.2396393,          20.
    382,   41.0381737,  -28.5634098,          20.
    383,   45.9478912,  -19.7177925,          20.
    384,   48.9764977,  -10.0649261,          20.
    385,          50.,           0.,          20.
    386,   48.9764977,   10.0649261,          30.
    387,   45.9478912,   19.7177925,          30.
    388,   41.0381737,   28.5634098,          30.
    389,   34.4483452,   36.2396393,          30.
    390,   26.4482002,   42.4322128,          30.
    391,    17.365263,   46.8876076,          30.
    392,   7.57138872,   49.4234161,          30.
    393,  -2.53245854,   49.9358253,          30.
    394,  -12.5326262,   48.4038544,          30.
    395,  -22.0197067,   44.8902283,          30.
    396,   -30.605299,   39.5387878,          30.
    397,  -37.9379044,   32.5686226,          30.
    398,  -43.7173309,   24.2650986,          30.
    399,  -47.7069626,   14.9681559,          30.
    400,  -49.7434654,   5.05841589,          30.
    401,  -49.7434654,  -5.05841589,          30.
    402,  -47.7069626,  -14.9681559,          30.
    403,  -43.7173309,  -24.2650986,          30.
    404,  -37.9379044,  -32.5686226,          30.
    405,   -30.605299,  -39.5387878,          30.
    406,  -22.0197067,  -44.8902283,          30.
    407,  -12.5326262,  -48.4038544,          30.
    408,  -2.53245854,  -49.9358253,          30.
    409,   7.57138872,  -49.4234161,          30.
    410,    17.365263,  -46.8876076,          30.
    411,   26.4482002,  -42.4322128,          30.
    412,   34.4483452,  -36.2396393,          30.
    413,   41.0381737,  -28.5634098,          30.
    414,   45.9478912,  -19.7177925,          30.
    415,   48.9764977,  -10.0649261,          30.
    416,          50.,           0.,          30.
    417,   48.9764977,   10.0649261,          40.
    418,   45.9478912,   19.7177925,          40.
    419,   41.0381737,   28.5634098,          40.
    420,   34.4483452,   36.2396393,          40.
    421,   26.4482002,   42.4322128,          40.
    422,    17.365263,   46.8876076,          40.
    423,   7.57138872,   49.4234161,          40.
    424,  -2.53245854,   49.9358253,          40.
    425,  -12.5326262,   48.4038544,          40.
    426,  -22.0197067,   44.8902283,          40.
    427,   -30.605299,   39.5387878,          40.
    428,  -37.9379044,   32.5686226,          40.
    429,  -43.7173309,   24.2650986,          40.
    430,  -47.7069626,   14.9681559,          40.
    431,  -49.7434654,   5.05841589,          40.
    432,  -49.7434654,  -5.05841589,          40.
    433,  -47.7069626,  -14.9681559,          40.
    434,  -43.7173309,  -24.2650986,          40.
    435,  -37.9379044,  -32.5686226,          40.
    436,   -30.605299,  -39.5387878,          40.
    437,  -22.0197067,  -44.8902283,          40.
    438,  -12.5326262,  -48.4038544,          40.
    439,  -2.53245854,  -49.9358253,          40.
    440,   7.57138872,  -49.4234161,          40.
    441,    17.365263,  -46.8876076,          40.
    442,   26.4482002,  -42.4322128,          40.
    443,   34.4483452,  -36.2396393,          40.
    444,   41.0381737,  -28.5634098,          40.
    445,   45.9478912,  -19.7177925,          40.
    446,   48.9764977,  -10.0649261,          40.
    447,          50.,           0.,          40.
    448,   48.9764977,   10.0649261,          50.
    449,   45.9478912,   19.7177925,          50.
    450,   41.0381737,   28.5634098,          50.
    451,   34.4483452,   36.2396393,          50.
    452,   26.4482002,   42.4322128,          50.
    453,    17.365263,   46.8876076,          50.
    454,   7.57138872,   49.4234161,          50.
    455,  -2.53245854,   49.9358253,          50.
    456,  -12.5326262,   48.4038544,          50.
    457,  -22.0197067,   44.8902283,          50.
    458,   -30.605299,   39.5387878,          50.
    459,  -37.9379044,   32.5686226,          50.
    460,  -43.7173309,   24.2650986,          50.
    461,  -47.7069626,   14.9681559,          50.
    462,  -49.7434654,   5.05841589,          50.
    463,  -49.7434654,  -5.05841589,          50.
    464,  -47.7069626,  -14.9681559,          50.
    465,  -43.7173309,  -24.2650986,          50.
    466,  -37.9379044,  -32.5686226,          50.
    467,   -30.605299,  -39.5387878,          50.
    468,  -22.0197067,  -44.8902283,          50.
    469,  -12.5326262,  -48.4038544,          50.
    470,  -2.53245854,  -49.9358253,          50.
    471,   7.57138872,  -49.4234161,          50.
    472,    17.365263,  -46.8876076,          50.
    473,   26.4482002,  -42.4322128,          50.
    474,   34.4483452,  -36.2396393,          50.
    475,   41.0381737,  -28.5634098,          50.
    476,   45.9478912,  -19.7177925,          50.
    477,   48.9764977,  -10.0649261,          50.
    478,          50.,           0.,          50.
    479,   48.9764977,   10.0649261,          60.
    480,   45.9478912,   19.7177925,          60.
    481,   41.0381737,   28.5634098,          60.
    482,   34.4483452,   36.2396393,          60.
    483,   26.4482002,   42.4322128,          60.
    484,    17.365263,   46.8876076,          60.
    485,   7.57138872,   49.4234161,          60.
    486,  -2.53245854,   49.9358253,          60.
    487,  -12.5326262,   48.4038544,          60.
    488,  -22.0197067,   44.8902283,          60.
    489,   -30.605299,   39.5387878,          60.
    490,  -37.9379044,   32.5686226,          60.
    491,  -43.7173309,   24.2650986,          60.
    492,  -47.7069626,   14.9681559,          60.
    493,  -49.7434654,   5.05841589,          60.
    494,  -49.7434654,  -5.05841589,          60.
    495,  -47.7069626,  -14.9681559,          60.
    496,  -43.7173309,  -24.2650986,          60.
    497,  -37.9379044,  -32.5686226,          60.
    498,   -30.605299,  -39.5387878,          60.
    499,  -22.0197067,  -44.8902283,          60.
    500,  -12.5326262,  -48.4038544,          60.
    501,  -2.53245854,  -49.9358253,          60.
    502,   7.57138872,  -49.4234161,          60.
    503,    17.365263,  -46.8876076,          60.
    504,   26.4482002,  -42.4322128,          60.
    505,   34.4483452,  -36.2396393,          60.
    506,   41.0381737,  -28.5634098,          60.
    507,   45.9478912,  -19.7177925,          60.
    508,   48.9764977,  -10.0649261,          60.
    509,          50.,           0.,          60.
    510,   48.9764977,   10.0649261,          70.
    511,   45.9478912,   19.7177925,          70.
    512,   41.0381737,   28.5634098,          70.
    513,   34.4483452,   36.2396393,          70.
    514,   26.4482002,   42.4322128,          70.
    515,    17.365263,   46.8876076,          70.
    516,   7.57138872,   49.4234161,          70.
    517,  -2.53245854,   49.9358253,          70.
    518,  -12.5326262,   48.4038544,          70.
    519,  -22.0197067,   44.8902283,          70.
    520,   -30.605299,   39.5387878,          70.
    521,  -37.9379044,   32.5686226,          70.
    522,  -43.7173309,   24.2650986,          70.
    523,  -47.7069626,   14.9681559,          70.
    524,  -49.7434654,   5.05841589,          70.
    525,  -49.7434654,  -5.05841589,          70.
    526,  -47.7069626,  -14.9681559,          70.
    527,  -43.7173309,  -24.2650986,          70.
    528,  -37.9379044,  -32.5686226,          70.
    529,   -30.605299,  -39.5387878,          70.
    530,  -22.0197067,  -44.8902283,          70.
    531,  -12.5326262,  -48.4038544,          70.
    532,  -2.53245854,  -49.9358253,          70.
    533,   7.57138872,  -49.4234161,          70.
    534,    17.365263,  -46.8876076,          70.
    535,   26.4482002,  -42.4322128,          70.
    536,   34.4483452,  -36.2396393,          70.
    537,   41.0381737,  -28.5634098,          70.
    538,   45.9478912,  -19.7177925,          70.
    539,   48.9764977,  -10.0649261,          70.
    540,          50.,           0.,          70.
    541,   48.9764977,   10.0649261,          80.
    542,   45.9478912,   19.7177925,          80.
    543,   41.0381737,   28.5634098,          80.
    544,   34.4483452,   36.2396393,          80.
    545,   26.4482002,   42.4322128,          80.
    546,    17.365263,   46.8876076,          80.
    547,   7.57138872,   49.4234161,          80.
    548,  -2.53245854,   49.9358253,          80.
    549,  -12.5326262,   48.4038544,          80.
    550,  -22.0197067,   44.8902283,          80.
    551,   -30.605299,   39.5387878,          80.
    552,  -37.9379044,   32.5686226,          80.
    553,  -43.7173309,   24.2650986,          80.
    554,  -47.7069626,   14.9681559,          80.
    555,  -49.7434654,   5.05841589,          80.
    556,  -49.7434654,  -5.05841589,          80.
    557,  -47.7069626,  -14.9681559,          80.
    558,  -43.7173309,  -24.2650986,          80.
    559,  -37.9379044,  -32.5686226,          80.
    560,   -30.605299,  -39.5387878,          80.
    561,  -22.0197067,  -44.8902283,          80.
    562,  -12.5326262,  -48.4038544,          80.
    563,  -2.53245854,  -49.9358253,          80.
    564,   7.57138872,  -49.4234161,          80.
    565,    17.365263,  -46.8876076,          80.
    566,   26.4482002,  -42.4322128,          80.
    567,   34.4483452,  -36.2396393,          80.
    568,   41.0381737,  -28.5634098,          80.
    569,   45.9478912,  -19.7177925,          80.
    570,   48.9764977,  -10.0649261,          80.
    571,          50.,           0.,          80.
    572,   48.9764977,   10.0649261,          90.
    573,   45.9478912,   19.7177925,          90.
    574,   41.0381737,   28.5634098,          90.
    575,   34.4483452,   36.2396393,          90.
    576,   26.4482002,   42.4322128,          90.
    577,    17.365263,   46.8876076,          90.
    578,   7.57138872,   49.4234161,          90.
    579,  -2.53245854,   49.9358253,          90.
    580,  -12.5326262,   48.4038544,          90.
    581,  -22.0197067,   44.8902283,          90.
    582,   -30.605299,   39.5387878,          90.
    583,  -37.9379044,   32.5686226,          90.
    584,  -43.7173309,   24.2650986,          90.
    585,  -47.7069626,   14.9681559,          90.
    586,  -49.7434654,   5.05841589,          90.
    587,  -49.7434654,  -5.05841589,          90.
    588,  -47.7069626,  -14.9681559,          90.
    589,  -43.7173309,  -24.2650986,          90.
    590,  -37.9379044,  -32.5686226,          90.
    591,   -30.605299,  -39.5387878,          90.
    592,  -22.0197067,  -44.8902283,          90.
    593,  -12.5326262,  -48.4038544,          90.
    594,  -2.53245854,  -49.9358253,          90.
    595,   7.57138872,  -49.4234161,          90.
    596,    17.365263,  -46.8876076,          90.
    597,   26.4482002,  -42.4322128,          90.
    598,   34.4483452,  -36.2396393,          90.
    599,   41.0381737,  -28.5634098,          90.
    600,   45.9478912,  -19.7177925,          90.
    601,   48.9764977,  -10.0649261,          90.
    602,          50.,           0.,          90.
    603,   48.9764977,   10.0649261,         100.
    604,   45.9478912,   19.7177925,         100.
    605,   41.0381737,   28.5634098,         100.
    606,   34.4483452,   36.2396393,         100.
    607,   26.4482002,   42.4322128,         100.
    608,    17.365263,   46.8876076,         100.
    609,   7.57138872,   49.4234161,         100.
    610,  -2.53245854,   49.9358253,         100.
    611,  -12.5326262,   48.4038544,         100.
    612,  -22.0197067,   44.8902283,         100.
    613,   -30.605299,   39.5387878,         100.
    614,  -37.9379044,   32.5686226,         100.
    615,  -43.7173309,   24.2650986,         100.
    616,  -47.7069626,   14.9681559,         100.
    617,  -49.7434654,   5.05841589,         100.
    618,  -49.7434654,  -5.05841589,         100.
    619,  -47.7069626,  -14.9681559,         100.
    620,  -43.7173309,  -24.2650986,         100.
    621,  -37.9379044,  -32.5686226,         100.
    622,   -30.605299,  -39.5387878,         100.
    623,  -22.0197067,  -44.8902283,         100.
    624,  -12.5326262,  -48.4038544,         100.
    625,  -2.53245854,  -49.9358253,         100.
    626,   7.57138872,  -49.4234161,         100.
    627,    17.365263,  -46.8876076,         100.
    628,   26.4482002,  -42.4322128,         100.
    629,   34.4483452,  -36.2396393,         100.
    630,   41.0381737,  -28.5634098,         100.
    631,   45.9478912,  -19.7177925,         100.
    632,   48.9764977,  -10.0649261,         100.
    633,          50.,           0.,         100.
    634,   48.9764977,   10.0649261,         110.
    635,   45.9478912,   19.7177925,         110.
    636,   41.0381737,   28.5634098,         110.
    637,   34.4483452,   36.2396393,         110.
    638,   26.4482002,   42.4322128,         110.
    639,    17.365263,   46.8876076,         110.
    640,   7.57138872,   49.4234161,         110.
    641,  -2.53245854,   49.9358253,         110.
    642,  -12.5326262,   48.4038544,         110.
    643,  -22.0197067,   44.8902283,         110.
    644,   -30.605299,   39.5387878,         110.
    645,  -37.9379044,   32.5686226,         110.
    646,  -43.7173309,   24.2650986,         110.
    647,  -47.7069626,   14.9681559,         110.
    648,  -49.7434654,   5.05841589,         110.
    649,  -49.7434654,  -5.05841589,         110.
    650,  -47.7069626,  -14.9681559,         110.
    651,  -43.7173309,  -24.2650986,         110.
    652,  -37.9379044,  -32.5686226,         110.
    653,   -30.605299,  -39.5387878,         110.
    654,  -22.0197067,  -44.8902283,         110.
    655,  -12.5326262,  -48.4038544,         110.
    656,  -2.53245854,  -49.9358253,         110.
    657,   7.57138872,  -49.4234161,         110.
    658,    17.365263,  -46.8876076,         110.
    659,   26.4482002,  -42.4322128,         110.
    660,   34.4483452,  -36.2396393,         110.
    661,   41.0381737,  -28.5634098,         110.
    662,   45.9478912,  -19.7177925,         110.
    663,   48.9764977,  -10.0649261,         110.
    664,          50.,           0.,         110.
    665,   48.9764977,   10.0649261,         120.
    666,   45.9478912,   19.7177925,         120.
    667,   41.0381737,   28.5634098,         120.
    668,   34.4483452,   36.2396393,         120.
    669,   26.4482002,   42.4322128,         120.
    670,    17.365263,   46.8876076,         120.
    671,   7.57138872,   49.4234161,         120.
    672,  -2.53245854,   49.9358253,         120.
    673,  -12.5326262,   48.4038544,         120.
    674,  -22.0197067,   44.8902283,         120.
    675,   -30.605299,   39.5387878,         120.
    676,  -37.9379044,   32.5686226,         120.
    677,  -43.7173309,   24.2650986,         120.
    678,  -47.7069626,   14.9681559,         120.
    679,  -49.7434654,   5.05841589,         120.
    680,  -49.7434654,  -5.05841589,         120.
    681,  -47.7069626,  -14.9681559,         120.
    682,  -43.7173309,  -24.2650986,         120.
    683,  -37.9379044,  -32.5686226,         120.
    684,   -30.605299,  -39.5387878,         120.
    685,  -22.0197067,  -44.8902283,         120.
    686,  -12.5326262,  -48.4038544,         120.
    687,  -2.53245854,  -49.9358253,         120.
    688,   7.57138872,  -49.4234161,         120.
    689,    17.365263,  -46.8876076,         120.
    690,   26.4482002,  -42.4322128,         120.
    691,   34.4483452,  -36.2396393,         120.
    692,   41.0381737,  -28.5634098,         120.
    693,   45.9478912,  -19.7177925,         120.
    694,   48.9764977,  -10.0649261,         120.
    695,          50.,           0.,         120.
    696,  -22.6316452,  -36.4606361,           0.
    697,  -27.7262955,  -30.3257904,           0.
    698,  -33.5496635,  -22.9582195,           0.
    699,  -39.6429329,  -8.59032536,           0.
    700,  -41.0354958,  0.794931114,           0.
    701,  -42.0735016,   8.69816208,           0.
    702,  -14.5687323,   38.5564957,           0.
    703,   39.1603737,  -11.4945745,           0.
    704,    35.616848,  -19.9551506,           0.
    705,   24.9891281,  -31.7448826,           0.
    706,   16.2594566,  -37.1310616,           0.
    707,   17.7884102,   36.5015106,           0.
    708,   26.0875282,   33.3185081,           0.
    709,   31.2380695,   26.6091061,           0.
    710,   38.7595482,   12.6952419,           0.
    711,   40.7062836,   3.72878528,           0.
    712,   42.2719498,  -4.11364079,           0.
    713,   37.0883522,   20.6527138,           0.
    714,   6.48199415,   41.0055199,           0.
    715,  -33.0448647,   23.2262955,           0.
    716,  -38.8754845,  -16.7313156,           0.
    717,  -5.28033113,   -40.456398,           0.
    718,   32.2286224,  -27.3627739,           0.
    719,   20.1601753,   25.5389862,           0.
    720,   -23.588419,  -21.7189083,           0.
    721,   25.0121498,  -20.6085892,           0.
    722,   30.8097878,  -12.6600008,           0.
    723,  -29.7109127,  -12.9104366,           0.
    724,   32.6178894,   6.71279716,           0.
    725,  -31.9545937,  -2.24234605,           0.
    726,   28.5232735,   15.8604393,           0.
    727,   32.8511696,  -3.16162968,           0.
    728,   15.2882338,   -27.081028,           0.
    729,   9.55625629,  -41.8509521,           0.
    730,  -27.4136963,   30.6315422,           0.
    731,  -38.1887321,   15.3990774,           0.
    732,  -5.14964294,   40.4400444,           0.
    733,  -14.9025736,  -38.3571396,           0.
    734,  -8.45871353,  -30.8491116,           0.
    735,  -28.7858219,   14.1792116,           0.
    736,  -22.9083214,   21.8074303,           0.
    737,  -7.90655613,   31.1228123,           0.
    738,  -22.4578228,   36.6968384,           0.
    739,   2.66972518,  -42.9337387,           0.
    740,   16.7372246,   14.6236134,           0.
    741,   21.7747345,  -8.55320358,           0.
    742,    13.998332,   -16.780859,           0.
    743,  -18.3283634,  -13.2713709,           0.
    744,   22.6843662,   4.24846554,           0.
    745,  -22.2399673,  -4.29394293,           0.
    746,  -12.3002176,  -5.61827421,           0.
    747,  -18.7674179,   12.3828259,           0.
    748,  0.715331614,   33.3549919,           0.
    749,   6.76157618,  -22.4753418,           0.
    750,   10.7342377,   21.7537575,           0.
    751,  -25.2809258,   5.04507589,           0.
    752,  -13.2637367,  -21.8903332,           0.
    753,   11.1154633,   6.07048512,           0.
    754,  0.869043827,   23.7834015,           0.
    755,   9.45819855,   30.3230286,           0.
    756,   4.26174068,  -33.1419487,           0.
    757,  -15.5191898,   3.02391267,           0.
    758,  -11.1016474,   20.5484905,           0.
    759,   3.29311538,  -13.2655668,           0.
    760,   6.33808374,   14.7613087,           0.
    761,  -34.5531807,   6.97901869,           0.
    762,  -7.82552624,  -13.8557835,           0.
    763,   14.4764252,  -1.83327258,           0.
    764,   4.63290739,  -2.32509327,           0.
    765,   11.6351032,  -8.55159855,           0.
    766,  -5.80357313,  0.881101191,           0.
    767,  -3.60065889,  -6.83672333,           0.
    768,  -2.53859067,  -22.5796814,           0.
    769,  0.827712476,   7.37726974,           0.
    770,  -17.7261295,   29.8939342,           0.
    771,  -8.79075336,   9.89186287,           0.
    772,  -18.4285641,  -29.9336529,           0.
    773,  -2.37151217,   15.2724667,           0.
    774,  -8.51744366,   21.2043629,   135.241318
    775,   5.55576515,    6.5366044,   135.214706
    776,  -27.1136189,  -35.8754234,   134.862656
    777,   42.8410339,   -8.8720417,   134.017319
    778,   34.5144768,   -1.8665086,   136.120377
    779,  -22.6148949,  -27.5432701,   135.540268
    780,  -15.9375753,  -24.5868473,    135.00679
    781,  -19.2519398,  -39.9355659,   135.101379
    782,  -39.8857651,   3.51329327,   135.115326
    783,  -35.2956772,   11.8235302,   134.799484
    784,  -31.2694588,  -3.07667327,   134.769943
    785,  -42.3432808,  -2.65382552,   135.749847
    786,    1.0439713,  -44.0485878,   135.148346
    787,   34.6753387,   8.27152061,   134.463089
    788,   26.3228054,  -22.6181183,   136.081085
    789,   15.3051529,  -23.3301086,   135.846954
    790,  -9.08393574,  -35.9503441,   134.978485
    791,   12.6848373,  -40.9212036,   134.633209
    792,  -19.8293571,  -6.67431498,   134.549103
    793,  -27.5603924,  -10.4371033,   136.008484
    794,   6.40815353,   37.1275291,    135.40712
    795,  -36.3624382,  -11.1804399,   134.975296
    796,   4.88295364,  -19.6795101,    134.48941
    797,   3.86352611,  -10.9664412,   135.000015
    798,  -3.84267902,  -23.7072048,   134.123047
    799,  -11.1305218, -0.289913923,   135.862381
    800,  -30.5312519,  -18.9995499,   134.816742
    801,   40.2013741,   17.1413288,   135.261383
    802,  -23.2569923,   30.4098434,   134.989517
    803,  -8.26064777,   7.32738829,   134.960022
    804,  0.581974328,   10.7268333,   60.1598167
    805,  -7.58879995,   23.8807411,   64.3058395
    806,  -7.77985811,   12.5677567,   53.3796806
    807,  -9.30145931,   12.2268095,   64.8023071
    808,   3.05369735,   18.1102753,   67.9762955
    809,  -13.2371817,   4.24840021,    59.704052
    810,  -8.40925884,   2.31480217,   48.1905632
    811,  -2.10855913,   1.76019776,   63.7176628
    812,   5.98038769,   2.14996099,   56.0803185
    813,  0.644502461,   8.66925907,   75.3853683
    814,   8.02718353,   9.97354698,   67.3527298
    815,    4.7823801,   12.8436527,   50.7210503
    816,  -2.81593418,   23.4887581,   54.9729538
    817,   8.95501137,   20.7803764,   59.3706741
    818,  -29.8383827,   11.9036179,    62.109787
    819,  -28.6936378,   6.05698776,    54.936203
    820,  -21.0427589,   18.3494873,   56.4256897
    821,  -22.1212597,   6.42720079,   62.9783707
    822,   -19.375761,   8.25573349,   52.0584869
    823,   -30.402298,    15.704896,   51.9778786
    824,   -25.841074,   11.8564138,   44.7728539
    825,  -22.0480595,   2.62314057,   44.2550774
    826,  -14.3872013,   17.9796848,   49.1309624
    827,  -21.2558537,   8.57156658,   36.3635712
    828,  -5.47106838,   17.9730415,   72.8420868
    829,   7.60338211,   22.9742584,   78.6415482
    830, -0.0414825678,  -3.14556885,   88.8141251
    831,  -5.14798355,  -4.15974665,   76.1771469
    832,  -2.46971869,  -14.8497601,   76.1531448
    833,  -9.96655655,   -8.7906971,   82.3887024
    834,  -12.4630747,   1.59829056,   83.6309662
    835,   1.81640685,  -11.4179115,   47.4622612
    836,   8.88302708,  -13.2794495,   38.5261536
    837,  -1.19535673,  -4.52796793,   33.4259758
    838,   1.25771284,   3.68094969,   42.3848267
    839,  -4.90446138,  -21.8063202,    54.572998
    840,  -7.11920834,  -14.6095285,   48.4772453
    841,   6.93577719,   -21.124958,   43.3171921
    842,  -5.43767595,  -9.06321812,   57.4177399
    843,    14.282444,  -3.16255021,   55.6102982
    844,   14.6205177,  -14.3837557,   51.2762337
    845,   6.36782455,   -7.9041214,   61.9275169
    846,   5.77191496,  -16.5346508,   57.1586723
    847,  -6.85589218,   19.6503544,   102.804962
    848,  -5.38576698,    23.279129,   90.0768051
    849,  -7.41129494,   13.1007891,   96.4897003
    850,  -14.6989374,   21.6146469,   96.8741837
    851,   1.31145382,   14.1071987,   106.235329
    852,   4.28525686,   23.1332302,   100.805534
    853, -0.329213768,   32.6754646,   44.3131332
    854,   4.60460138,   41.9930077,   52.4911537
    855,   13.2696648,   38.2961235,   42.9601059
    856,    7.0970912,   41.4331131,   42.2935143
    857,  -4.80506706,   18.0996189,   117.377922
    858,  -7.73484325,   12.0164814,    108.39061
    859,  -6.74799204,   24.8709888,    110.73597
    860,  -14.9627781,   11.0784235,   102.197556
    861,  -19.6437969,   26.5108585,   104.047256
    862,  -15.2575407,   17.8825722,   109.236694
    863,   4.15316153,  -25.3931293,   58.4661369
    864,  -2.16844201,  -18.3247223,   64.2003708
    865,  -5.86998367,  -31.3313313,   52.5705872
    866,   4.99501848,  -29.3209457,   48.8553696
    867,   3.81265473,  -36.2356606,   61.7973366
    868,   5.35750818,    14.259923,   39.2868118
    869,   12.0476065,   25.4143295,   47.1095238
    870,   15.4789305,   12.2696199,   46.5737991
    871,   25.0487423,   17.2109528,   44.6008797
    872,   16.4528217,   10.8725958,   38.7557716
    873,   10.1905231,   0.25345704,   44.0451431
    874,   14.9043646,    12.346529,   57.0137329
    875,   21.4500542,   20.8771248,   53.5988655
    876,   27.9401474,   6.50651217,   55.1807518
    877,   20.4004097,   4.37014246,   45.3708992
    878,   13.1517839,   1.68397212,   67.2610245
    879,    24.795042,  -9.71682167,   79.0317612
    880,    29.154026,  -4.88771343,   68.7301636
    881,    37.312542,  -5.75429726,   79.8243179
    882,    34.946701,  -12.2079582,   70.6623154
    883,  -15.8842888,    6.3792367,   69.9165497
    884,   6.58237839,  -4.15720797,   77.4416199
    885,   12.0289984,   11.1529617,     79.25354
    886,  -11.9926386,  -2.58102942,   74.3377151
    887,  -4.74437857,    7.9943409,   83.3092804
    888,  -22.8382359,   4.12685585,   79.1096802
    889,   13.3539171,  -40.4446945,   35.5393295
    890,  -12.9655495,  -5.48474836,   91.3826599
    891,  -19.7141171,  -4.79250765,   83.6947708
    892,  -16.8906441,   12.8150721,   86.3535004
    893,  -21.2164803,   3.32438898,   89.6828766
    894,  -11.2265368,   5.50346279,   93.3987579
    895,  -17.1482067,  -10.4683447,   51.5764694
    896,  -6.39757299,   12.8232813,    38.701931
    897,  -6.93201923,    6.9670434,   30.4218502
    898,  -9.29312038,  -7.54544735,   42.4938965
    899,  -11.3077564,  -3.98530507,   32.7019157
    900,   24.1566257,  -34.9131165,    103.74968
    901,    30.056345,  -29.7753353,   106.301765
    902,   28.1793594,  -32.4171143,   115.321411
    903,  -4.76769924,   18.4856873,    45.624424
    904,   8.58323288,   6.26802969,   106.317757
    905,   13.8815975,   12.6795721,   97.2945633
    906,   14.9593983,   19.9446774,   104.999817
    907,   17.2146225,   9.49054623,   106.621597
    908,   2.26818132,   2.86812973,   116.062218
    909,  0.490515739,   2.99469113,   106.397491
    910,   6.44344234,  -4.13288403,   107.261032
    911,   16.3341045, -0.244806796,   102.260132
    912,   12.9515963,   1.05154574,   115.167122
    913,   6.90114546,  -1.48420298,   98.0364685
    914,   5.32319593,   9.14844322,   96.2895432
    915,   2.63895655,  -22.9076176,   73.5842285
    916,    9.7345829,  -17.9547539,   79.6800308
    917,   13.7670317,  -27.6969929,   78.9880905
    918,   10.7165012,  -22.4655342,    67.678566
    919,   42.2536316,  -5.46128321,   84.7617111
    920,  -9.82648754,  -41.1405144,   106.352432
    921,  -10.0245008,  -41.0429611,   96.7826843
    922,  -14.3809834,  -31.1126118,   103.050179
    923,  -2.13888836,   -33.867218,   103.400063
    924,  -1.76191807,  -29.5939751,   80.5840836
    925,  -9.78065205,  -21.4776421,   72.4317398
    926,   7.12045765,  -29.9938641,   70.5405579
    927,   -3.9505012,  -30.4215355,   61.8121758
    928,   -12.044632,  -25.8047981,   62.1350479
    929,  -4.94056749,  -31.3721123,   70.1931076
    930,   13.3625059,  -5.40972376,   88.4994736
    931,   14.0021391,  -12.2846317,   73.4295883
    932,   15.5337353,  -14.8754063,   88.1651688
    933,   6.48350096,  -14.5249271,   88.7383499
    934,   22.4570103,  -2.03855658,   89.9085541
    935,   16.4879551, -0.757383823,   79.8701401
    936,  -33.5353088,   2.28140235,   35.6610336
    937,  -34.0480995,   4.44690037,   45.4410286
    938,  -27.0567932,  -6.69584513,   43.8030281
    939,  -21.0791626,  -3.27609038,    31.779295
    940,  -23.1507988,  -2.13635468,   53.9323082
    941,  -32.8806572,   11.5414171,   36.7506523
    942,  -28.9076443,   20.1149292,   34.3955574
    943,  -20.9270687,   17.6876144,   36.3092461
    944,   -12.836936,   18.7444191,   32.0697403
    945,  -23.9530773,   13.9047766,   25.9897652
    946,  -23.6294899,    24.010252,   27.5326881
    947,  -20.1691532,   25.7162514,   35.9765091
    948,  -4.89436722,   -24.480648,   38.7021446
    949,  -11.7243214,  -17.9272594,   36.3656235
    950,  -3.24278402,  -14.5100203,   36.1403999
    951,  -14.9233351,  -14.8798304,   60.9899063
    952,  -31.5900593,      28.8076,   115.048569
    953,  -31.1894569,   29.1269455,    106.29702
    954,   -38.222683,   18.5446892,   113.781075
    955,  -7.57060242,  -10.6832705,   101.941895
    956,  -16.4166374,  -13.7728558,   97.8205566
    957,  -13.7896423,   1.39526033,   100.767807
    958,  -5.37806702,  -1.13476455,   99.7148132
    959,  -30.3782635,  -11.4352961,   78.9860306
    960,  -37.0242882,  -17.6813354,   78.0318756
    961,  -38.3210373,  -18.3587761,   86.7234344
    962,  -40.1321716,  -10.5078182,    86.670929
    963,  0.725410461,  -18.0103645,   98.5732956
    964,  -5.97646999,  -20.4958611,   88.2570267
    965, -0.233498469,   -8.0370903,   106.530731
    966,    2.2552135,  -20.0483284,    108.56974
    967,  -8.21248531,  -22.8360138,   102.816101
    968,   3.19125009,    20.836504,   122.268097
    969, -0.684832036,   11.8653383,   123.783821
    970,   23.7137909,  -26.1755962,   28.2003384
    971,    29.767252,  -30.0988445,   33.7517891
    972,    33.064518,  -25.1038475,   24.9414196
    973,   34.9845886,  -24.0213718,   33.7517891
    974,   7.50447416,  -11.3397703,   97.4399338
    975,   7.10446453,   41.4242783,   85.7948227
    976,   11.4586143,   4.73840904,   88.9142609
    977,  -17.0326138,  -38.9495087,   104.722504
    978,    16.535614,  -11.3869438,   101.914673
    979,  -27.7735863,  -31.9798431,   114.200783
    980,  -18.0364151,   -38.226635,    115.19722
    981,  -4.54441929,   42.1747246,    103.70401
    982,  -18.1462612,  -4.99116707,   62.4980469
    983,  -4.61232185,   18.1073875,   82.4125824
    984,   5.32611513,   19.8278599,   87.9790649
    985,   24.8994083,  -34.7342644,   63.6054611
    986,  -14.6269684,  -12.1254997,   72.8779831
    987,   31.0384293,   8.43988228,   44.5940247
    988,   23.8331776,  -1.53843045,   33.0951843
    989,   30.0711365,   14.5232773,   34.9567451
    990,    33.005928,  -1.34121525,   36.4043999
    991,   33.7179718,   -2.2542429,   46.3195839
    992,   25.9843998,  -7.13079023,   39.7071838
    993,   18.0771847,  -4.02113724,    42.376709
    994,   25.5262699,  -2.21173644,   51.5888214
    995,  -25.1067677,  -5.36160755,   92.8547516
    996,  -22.8411312,   23.9969788,    114.16021
    997,  -20.7397957,   36.7970467,   113.765717
    998,  -24.0523796,   34.9497681,   106.620667
    999,  -12.2866716,  -4.13960314,   107.754021
   1000,  -17.0098171,  -15.4608421,   85.6841278
   1001,   -22.589119,   10.8933926,    95.102066
   1002,  -25.2666683,   8.59497929,   107.544708
   1003,  -10.0098839,    3.9415369,   108.072433
   1004,  -20.8041401,  -3.64250255,     109.1632
   1005,  -24.7648544,   -4.3616519,    75.289093
   1006,  -25.6118889,   12.8437443,   74.1405563
   1007,  -28.2123241,    4.6546278,   71.1425171
   1008,  -16.7887955,   17.8087025,   66.6748428
   1009,  -19.4180851,   35.5765076,   23.3945904
   1010,  -31.7967911,   27.8670483,   25.4906044
   1011,  -25.1974964,   33.6293182,   33.7012405
   1012,  -28.1255322,    15.874177,   88.2726059
   1013,   13.6706772,  -24.8971157,   25.6574306
   1014,   5.97011042,  -30.6054554,   16.5978909
   1015,  -1.10556281,  -30.4048653,   25.0653133
   1016, -0.013813911,  -21.1763725,   17.5575371
   1017,  -32.1491165,    6.8077054,   88.4096451
   1018,  -31.3358498,  -5.79376316,   85.3088531
   1019,  -37.4005585,   10.0944834,   78.4311295
   1020,   -34.338726,   -1.0759306,   75.6812134
   1021,  -13.5802956,   17.1673813,   77.8364029
   1022,  -31.8862877,   30.4049034,   123.914108
   1023,  -20.0163593,   31.2899361,   123.641632
   1024,  -4.65485096,  -3.72994757,   24.3827114
   1025,  -5.30619669,   3.78827977,   16.6369381
   1026, 0.0851243362,   4.66613626,   23.4385262
   1027, -0.366878122,  -1.96533346,   16.6369381
   1028,  -10.6644678,   1.84666991,   23.6128006
   1029,   2.57258201,  -10.0602703,      25.0028
   1030,   5.57248783,  -2.71899271,   25.4822578
   1031,  0.289142668,  -42.4582672,    43.389389
   1032,  -8.47579288,  -33.4450874,   44.1552849
   1033,  0.217812255,  -42.3551025,   53.2572556
   1034,  -38.7403984,  -14.7602625,   24.2002563
   1035,  -36.7414742,  -11.3015432,    15.756566
   1036,  -41.9994698,  -5.41427708,   24.1444798
   1037,  -13.2284021,  -35.4421425,   61.5432205
   1038,  -10.9059982,  -40.9353333,   53.8766441
   1039,  -1.89455271,  -42.1472282,   63.5937881
   1040,  -14.7137299,   -26.619482,   52.6388779
   1041,  -18.4810295,  -36.9975929,   52.1500244
   1042,  -20.3021069,   -21.030777,   63.3088989
   1043,  -40.0561676,   13.9193096,   86.6260681
   1044,  0.230179548,   29.3873501,   82.6319733
   1045,   8.37982273,    32.657299,   94.6384964
   1046,   17.5585041,  -14.0221405,   42.2313957
   1047,   30.7286472,   -11.291358,   47.4401093
   1048,   20.9926701,  -10.1214676,   55.9067421
   1049,   27.4394665,  -19.8083324,   48.7077904
   1050,   11.7623158,  -23.8426743,   35.2167206
   1051,   7.11349487,   4.54667473,   16.9498463
   1052,   27.9362259,  -20.6002483,   36.8990898
   1053,   18.8787537,  -29.2100201,   36.8990898
   1054,   6.81987286,   3.91438508,   33.4473343
   1055,   24.5764294,   20.8883305,   36.3632851
   1056,   14.1408167,    17.268404,   31.8688374
   1057,   13.8313227,   2.33509779,   27.3367805
   1058,   25.4057293,   6.93236637,   26.6441669
   1059,   18.4925938,   27.5067482,    36.181797
   1060,  -14.8378286,  -31.2315121,   28.3256378
   1061,  -15.0870209,  -29.2440434,   39.7982407
   1062,  -9.51583862,  -22.4483852,   26.3155403
   1063,  -22.9126663,  -24.8891792,   34.5124168
   1064,  -14.5884609,  -7.26261139,    25.322464
   1065,  -18.5319366,  -11.3953133,    34.036747
   1066,  -19.4730568,  -17.4652233,   26.0983562
   1067,  -16.4612865,  -19.5356979,   45.2802849
   1068, -0.300199687,  -41.7762108,   24.1754303
   1069,  -2.24889398,  -41.6084213,   33.3152847
   1070,  -6.88420725,  -40.5447578,   23.1075573
   1071,   7.32511473,  -34.2651596,   79.6428604
   1072,   16.3306541,  -18.6650391,   61.0228424
   1073,   25.0127583,  -14.2568064,    69.920639
   1074,   18.2763996,  -6.60559511,   67.1693115
   1075,   20.2089634,  -21.1288185,   78.3333282
   1076,   17.1374378,    25.066494,   62.4271584
   1077,   31.2209511,   14.8693027,   59.4840393
   1078,   16.3424969,   15.8362007,   68.9594345
   1079,    31.817894,   6.73213339,          68.
   1080,   22.7482624,   5.47424364,   68.8447952
   1081,   32.5335541,  -2.09938955,      60.1278
   1082,   40.7680054,   2.46603727,   61.1100006
   1083,   41.3112068,   11.5378447,   53.7305183
   1084,   38.6425819,   5.06044483,   50.5563545
   1085,   12.2273922,  -41.0854149,   16.4552689
   1086,   16.9220791,  -38.7656784,   23.2889252
   1087,    8.8249836,  -42.0878258,   24.9198017
   1088,    41.056427,  -12.5290289,   63.9521255
   1089,   38.5511551,   -14.059782,   53.2779083
   1090,   41.2153702,  -4.38757229,   54.2047539
   1091,   21.6730766,   14.6658773,   88.8796158
   1092,   33.6825485,   18.6943417,   87.8859329
   1093,   33.5461082,   25.3636284,   95.5664444
   1094,   28.6914425,   11.2515955,   94.6146927
   1095,   24.5132942,   10.2300901,   79.7830276
   1096,   17.8042679,   25.7565231,   92.8472977
   1097,   20.9156685,   19.8943405,   78.5253677
   1098,   23.3231316,   20.8620148,   99.7422714
   1099,   24.3659515,   4.72282648,   98.7181625
   1100,   38.7174377,   16.7208977,   115.379486
   1101,  -7.64476061,  -13.6492901,   115.462265
   1102,   0.91302526,  -28.6217422,   90.5160675
   1103,   -14.184597,   -26.551609,   88.3111191
   1104,  -14.8626766,  -33.4372902,   78.7711334
   1105,  -18.9498005,  -33.9116478,   68.4874878
   1106,  -16.1436138,  -9.46375942,   17.7042122
   1107,  -6.55247974,   34.4098511,   71.2322922
   1108,  -14.6034727,   28.2719078,   74.2438126
   1109,  -10.7276878,  -3.21657991,   123.209061
   1110,  -25.0204258,   21.2308578,   44.4044189
   1111,   -15.685523,   27.8925438,    44.277523
   1112,  -1.93280995,  -9.68972301,   122.938179
   1113,  -27.4801083,    32.286705,   53.7438889
   1114,   11.9212122,  -42.4071159,   123.753677
   1115,   5.27248049,  -42.1112442,    115.79129
   1116,   12.0786505,  -35.7304802,   123.514992
   1117,   15.0907784,  -38.1050911,   117.021919
   1118,   4.15871048,   24.9883385,   31.4797134
   1119,  0.362996697,    12.443202,   31.9929295
   1120,   10.4447556,   31.7993126,   35.4903374
   1121,   2.47540736,   23.7243977,   45.0322685
   1122,  -2.48709536,   21.8514576,   31.3524685
   1123,  -23.9225426,  -35.1089401,   33.3411522
   1124,   11.3746653,  -5.87742281,   33.4989624
   1125,   22.0199528,   36.3238068,   33.9410286
   1126,  -5.77584171,  -20.2237492,    122.82457
   1127,   37.8395805,  -18.7831936,   26.4350643
   1128,   4.38367796,  -34.6004219,    28.463686
   1129,   12.0786505,  -35.7304802,   16.4850121
   1130,  -17.0923138,   29.7565594,   61.6598167
   1131,  -24.6813316,    29.323225,   71.1362686
   1132,   5.27663088,  -42.2066116,   33.6141434
   1133,  -23.5647659,   21.6059971,   76.7720718
   1134,  -2.96823335,  -17.1401997,   23.4974575
   1135,  -18.0289974,   4.71470833,   27.7030792
   1136,  -10.7276878,  -3.21657991,   16.7909412
   1137,   23.5849648,  -2.84111476,   108.731483
   1138,   14.7211895,  -6.57503033,   113.562462
   1139,   30.2066212,  -5.66054344,   98.8942719
   1140,   -33.176857,  -6.90281248,   53.2048225
   1141,  -33.0380402,  0.160881072,   60.8410606
   1142,   -26.046833,  -12.3340178,    61.233429
   1143,   27.4809704,   31.4455185,   43.3227654
   1144,     26.65345,   29.9487648,   61.4170532
   1145,  -19.5889168,    4.8690753,   114.498589
   1146,   -16.447216,  -4.90079546,   116.302689
   1147,  -1.21965039,   10.7838888,    114.81868
   1148,  -6.08943272,  -3.74398708,   114.992958
   1149,   29.6127796,  -10.8362999,   60.4953232
   1150,   10.3395538,   18.1890697,   122.268082
   1151,   3.35002565,  -19.4311199,   122.471367
   1152,   36.1369247,  -22.2427559,   53.2079773
   1153,   37.9960632,  -18.9509163,   46.3432922
   1154,   -18.414526,   37.8571968,   33.7012405
   1155,   2.47256446,  -5.30373907,    115.01152
   1156,   8.71254539,   12.3054523,    114.81868
   1157,  -25.3010731,  -2.12549996,   101.878441
   1158,  -23.9028397,   34.6687965,   45.6655693
   1159,  -33.7034187,   25.8243122,   43.2942276
   1160,  -32.3296852,   27.4888706,   34.8177376
   1161,   10.2649851,   -15.770647,   112.684052
   1162,  -16.0718803,  -10.1242275,   122.221687
   1163,   14.1845541,  -29.7165318,   88.7171783
   1164,   14.3645067,  -21.9561806,   97.0488739
   1165,   11.3891687,  -20.8428288,   105.243118
   1166,   32.2605171,  -9.96967793,   89.2910309
   1167,    41.203743,  -11.4045334,   86.3498459
   1168,   38.1647644,  -18.4140759,   96.7101669
   1169,   30.9842014,    -15.10888,   103.100906
   1170,   40.9845963,  -9.21069813,   96.3540878
   1171,   22.2192879,  -14.8765621,     96.30056
   1172,   25.9756432,  -19.0354271,    87.652771
   1173,   34.0318451,  -14.3776369,   80.2767181
   1174,   35.1723404,  -22.9066525,   87.3206406
   1175,  -24.9781094,  -14.5323229,   70.9706497
   1176,    35.508831,    10.667285,    77.559227
   1177,   38.6371078,    17.829895,   81.3337479
   1178,  -28.2864819,   20.0955009,   105.685211
   1179,  -10.5670271,   8.70496941,   114.957108
   1180,   27.7146797,   12.6920376,   16.9943657
   1181,   29.1241684, -0.0362961069,    17.666729
   1182,  -27.1834526,    6.2743845,   26.0542393
   1183,  -13.4552164,   31.1643925,   36.5061493
   1184,  -36.3340645,   21.6900063,    96.840538
   1185,  -40.0918083,    12.481391,   96.8652725
   1186,  -40.1554527,   14.3530388,   106.458107
   1187,   40.0520706,   9.67218685,   33.5021935
   1188,   39.1831856,   6.13085699,   20.2386456
   1189,   39.9508057,   14.3398428,   26.5414047
   1190,     35.64254,   17.6903954,   16.4497032
   1191,   19.0869083,  -25.1246433,   51.8989525
   1192,   12.4764862,  -30.0667229,   61.3346786
   1193,    1.6239121,   30.5159283,   70.2314835
   1194,   20.2527771,   16.3872776,   22.9793549
   1195,   33.2297859,   26.1408596,   23.2882481
   1196,  -17.2605686,   28.6570339,   88.1630096
   1197,   7.19910049,   19.4593811,   110.830132
   1198,  -9.42390823,  -41.0562172,   84.8192291
   1199,  -8.26883316,   27.8441086,   81.8519897
   1200,  -5.73569965,   34.7713051,   88.1226807
   1201,  -13.0256071,   30.5594673,   95.6305084
   1202,  -3.32735586,    32.363266,   96.6087036
   1203,   3.63198757,   39.8010101,   78.1983566
   1204,  -7.50376463,   41.8622513,   79.7515717
   1205,   14.6926241,   37.7979393,   77.5231094
   1206,   12.7126427,   31.1033077,   86.6019211
   1207,   3.39224315,    -42.64151,   123.421211
   1208,  -27.4234943,  -31.1223431,    86.738121
   1209,   3.73347974,  -21.7510223,    32.279171
   1210,   9.17696857,  -16.2995281,   26.4657421
   1211,   17.9194889,  -11.9717484,   33.1396255
   1212,   13.5830345,  -31.5147438,   43.8917122
   1213,   9.74373531,  -33.2751312,   34.5265427
   1214,  -2.76550722,  -33.9593964,   36.6249886
   1215,  -29.5790195,  -16.0117741,   43.0042572
   1216,   -40.490284,  -13.1918449,    105.42234
   1217,  -42.5651207,  -3.06507134,   106.453606
   1218,  -26.1740952,  -19.6978703,   51.6121025
   1219,  -27.5837135,  -31.8763046,   45.9512711
   1220,  -10.0045471,   10.8969803,   22.9327049
   1221,  -14.0938988,   19.1655903,   22.2183075
   1222,  -5.58436537,   17.5757675,   22.9521351
   1223,  -10.0694475,   14.7339697,   16.3110027
   1224,    21.997818,   35.7815475,   97.1339951
   1225,    42.335556,   1.18731976,   34.7267303
   1226,   21.2200851,  -22.9505119,   69.4444427
   1227,  -37.4804878,   20.7034969,   33.9144325
   1228,  -24.3317871,  -28.0855999,   122.688766
   1229,  -22.2828712, -0.729608774,    122.32074
   1230,  -28.7950459,  0.954842269,   114.030716
   1231,  -15.1549616,  -14.5297079,   108.992233
   1232,  -27.5625362,  -13.0988283,   104.076653
   1233,  -34.1131516,  -7.87405109,   111.673149
   1234,  -1.45262206,   27.3516674,   117.012497
   1235,  -7.36485863,   27.2072887,   122.673531
   1236,  -25.6265888,  -18.7370319,   86.9774857
   1237,   37.9543915,  -19.0968685,   36.6211281
   1238,   18.1305141,   28.2170124,   78.1682587
   1239,   29.9054279,   28.0462418,   86.0757599
   1240,  -7.39223099,   34.9577789,   60.3571472
   1241,   -20.774519,  -23.7703171,   75.8649521
   1242,   23.0835991,   27.0523586,   112.038719
   1243,   18.0322914,    28.624485,   103.952751
   1244,   9.13462925,   29.0859756,   108.307068
   1245,   27.2556839,   32.2868271,   94.1883926
   1246,   20.3202457,   17.5910473,   113.458885
   1247,    14.178793,   23.9825363,   113.991051
   1248,   31.6208839,   -22.693573,   71.1111069
   1249,    27.132452,  -19.9461823,   60.6332932
   1250,   41.0547104,  -9.20504284,   43.2173271
   1251,    31.540205,  -13.2822618,    34.055542
   1252,  -29.4461327,  -15.6946192,   94.7596893
   1253,  -20.4627972,  -26.1720161,   94.8334885
   1254,  -20.6388359,   7.42114401,   17.6672535
   1255,  -23.6349792,  -23.9014244,   105.294609
   1256,   7.23272848,  -40.8325272,   51.8529358
   1257,   16.8103104,  -38.2333374,    53.268322
   1258,   28.1555843,  -31.7413521,   44.9419975
   1259,   24.6178875,  -34.6357689,   33.3384476
   1260,   21.0241547,  -32.3606148,   19.8281918
   1261,   -19.836132,  -37.3880692,   95.1972504
   1262,  -19.6201267,  -36.9195023,   86.6558762
   1263,  -9.01973343,  -32.5246506,   95.2608871
   1264,  0.569067359,  -13.6719112,   114.267082
   1265,   22.7604389,   26.9657192,   28.3110371
   1266,   8.24468708,    13.215888,   24.0267582
   1267,  -23.6978798,   21.7247448,   96.5237808
   1268,   33.4561386,  -26.1494179,   46.2354965
   1269,  -26.7247849,   30.6079788,   87.5880661
   1270,  -35.2168274,   23.1024761,   86.9295197
   1271,  -27.0396748,   32.8161659,   63.8071556
   1272,  -14.6912146,   39.9576569,   60.3071442
   1273,  -12.5316534,   35.8202057,   51.3058014
   1274,  -38.3006744,   18.2790241,   43.3157692
   1275,  -40.2172585,    12.110054,   43.0528259
   1276,  -41.0419998,   10.0058222,   73.0690308
   1277,  -40.0448761,  0.990720272,   82.7960358
   1278,   38.6936913,   18.0559711,   42.6120148
   1279,   41.3491554,  0.917124689,   42.8659973
   1280,   5.07659531,  -26.6507988,   102.332817
   1281,  -7.17522192,  -29.4846306,   109.428825
   1282,   1.77032793,   -34.640976,   111.835953
   1283,   9.95727062,  -26.1680183,   116.835724
   1284,  -36.2629318,  -22.8675365,   104.606583
   1285,   13.2400494,  -31.9759426,   103.100906
   1286,   29.6706104,   18.2660713,    74.915535
   1287,   28.6673012,  0.410256237,    78.571434
   1288,   32.8066978,   3.50470638,   89.5700226
   1289,   21.9292698,  -29.1200886,   60.7786522
   1290,   24.6313267,  -34.5771675,   53.3581238
   1291,   16.8113899,  -38.8044701,   63.4851494
   1292,   11.9641142,   -41.164196,   70.0642471
   1293,   18.6520233,  -35.0213966,   71.1111069
   1294,   4.08085823,   34.1991425,   102.612251
   1295,   10.8304443,   35.1150208,   114.577095
   1296,   7.59009504,    41.828804,   106.075394
   1297,   2.34764504,    34.533493,   113.135025
   1298,   7.02928782,   30.2796345,   122.764961
   1299,  -31.9986649,  -22.6338959,   74.3165207
   1300,  -35.6557617,  -16.3852634,   62.5431671
   1301,  -32.7131004,    -23.95895,   62.5362816
   1302,   7.13382053,  -32.9721146,   96.2384415
   1303,  -1.72002745,  -42.3151588,   96.7826843
   1304,   6.63935757,   -41.053566,   87.6695099
   1305,  -1.91877043,  -41.1519852,   87.7570724
   1306,   1.91724539,   34.5364571,   29.5599499
   1307,  -8.24780083,   31.6721115,   25.7851009
   1308,  -5.10717249,   34.4380493,   34.6535378
   1309,  -4.47023869,   41.5243263,   23.7569733
   1310,   6.64963436,   41.7238617,   35.2474327
   1311,  -4.64271164,     42.21381,   33.3351021
   1312,   10.9071264,    35.431263,   26.0086174
   1313,   5.30952883,   41.9122658,   24.6562119
   1314,   6.74402714,  0.668258846,    123.36306
   1315,   9.32818794,  -9.77670383,   122.449432
   1316, -0.366878122,  -1.96533346,    123.36306
   1317,    20.547327,  -15.7254047,   108.223183
   1318,   38.4292145,  -20.9673214,   65.1085205
   1319,  -33.4192543,  -7.12153959,   94.7842712
   1320,  -33.1679077,    1.7862854,   95.9291153
   1321,  -32.7330551,   8.37335587,   103.263641
   1322,  -18.6347656,   15.5633602,   116.771416
   1323,   22.5516624,   31.6265507,    16.248064
   1324,  -24.2555771,  -35.0867195,   105.098984
   1325,  -27.8992577,  -31.9733429,   96.6746368
   1326,  0.481226981,   42.4407845,   96.6704254
   1327,   14.5348215,    39.442337,   97.1339951
   1328,  -32.2718391,  -11.4424868,   34.5124168
   1329,  -29.5827274,  -17.4078255,   28.4151669
   1330,  -24.2633305,  -10.1615114,   21.9809875
   1331,  -19.8937435,   1.23361158,   17.0880756
   1332,  -28.9468899,  -4.59421301,   26.0060101
   1333,  -4.77821207,   42.1311989,   53.2036514
   1334,  -1.81413889,   41.9468994,   42.8659973
   1335,  -9.20489311,   39.7488365,   43.1001015
   1336,  -14.3657284,  -40.1008072,   69.4476776
   1337,   -8.5983181,   31.7429562,   103.669487
   1338,  -18.5462418,   37.3377571,   106.253372
   1339,  -16.2184181,   39.0074081,   96.9472351
   1340,  -9.61277008,   40.5291824,   96.8642731
   1341,  -24.0127163,    34.921627,   96.7250748
   1342,   20.2252903,   36.1774826,   23.5486298
   1343,  -23.5305595,  -33.7079773,    62.248497
   1344,   30.9005108,  -29.0539742,   53.2079773
   1345,   31.4777069,  -29.0443878,   63.7415314
   1346,  -11.9548454,   20.3410835,   117.234093
   1347,  -15.5668974,   29.9667511,   112.232918
   1348,   3.55627871,   32.6702805,   52.6459846
   1349,  -15.0033159,   39.7248459,   71.0180054
   1350,   10.4550018,   25.8267899,   69.4038315
   1351,    8.5477047,   31.6694221,   61.1205673
   1352,  -21.5414639,   36.6112709,   82.3406448
   1353,  -13.6434774,   37.3004494,   85.1014633
   1354,   31.9545059,   27.8159981,   75.8444748
   1355,   25.5417156,    34.053093,   75.6333847
   1356,    31.557991,   28.1999092,   65.9476624
   1357,   36.4030914,   19.9517918,   67.8414536
   1358,   14.8036938,  -39.7838173,   96.7826843
   1359,   14.9309387,  -38.9067268,   87.6695099
   1360,   24.0180855,   25.8413696,   71.2552872
   1361,   18.0899849,   -35.364151,   80.1839523
   1362,   39.4292679,   9.89526939,   88.3492432
   1363,   3.68997002,  -42.1781349,   16.6606083
   1364,  -33.6820374,  -25.7427502,   86.7129898
   1365,  -27.7437363,  -32.3059845,    76.783699
   1366,  -4.92285681,   42.5685005,   65.2569199
   1367,   2.16630888,   40.5487633,   69.3791428
   1368,  -16.0927849,   42.7945786,   76.9786911
   1369,    25.540226,   7.57475042,   113.515419
   1370,    16.076664,   10.8522701,   121.855042
   1371,   29.2710552,   15.1443014,   109.615738
   1372,   33.1434975,   26.0103302,    53.103756
   1373,  -33.0028839,   23.7679672,   55.1913414
   1374,  -19.3589325,  -18.9363823,   112.959267
   1375,  -13.8072844,  -18.8938084,   121.751846
   1376,  -12.6973534,   -23.602663,   114.635468
   1377,  -18.1486111,  -29.2067738,    111.31633
   1378,  -29.5827274,  -17.4078255,   111.584831
   1379,  -30.8863697,  -25.5440598,   116.299622
   1380,  -21.0576668,  -19.3842793,   122.487686
   1381,  -16.1553345,   27.8922997,   26.6527481
   1382,   17.8794136,   3.02900314,   17.4532318
   1383,    16.076664,   10.8522701,   18.1449566
   1384,   10.3395538,   18.1890697,   17.7319107
   1385,  -27.2063255,   24.2469845,   63.2936516
   1386,  -29.8678761,  -4.15118027,   68.3154373
   1387,   20.3682251,   37.2133675,   43.3077431
   1388,   26.8454571,   32.3893242,   53.0054932
   1389,  -41.0119057,   4.05110168,   52.9757118
   1390,  -40.7819138,    6.7533412,   62.0062599
   1391,  -40.1598396,    13.460968,   52.3304939
   1392,   41.6289406,   10.1853485,   65.2065048
   1393,   38.7650375,   20.4622021,    55.769062
   1394,   22.1121254,  -23.5424156,   103.100906
   1395,   20.3447685,  -37.2942162,   96.6739044
   1396,    40.947731,    11.078393,   43.3895035
   1397,   33.8125153,   22.2000828,   107.245125
   1398,    36.879406,   17.4671307,   97.7752228
   1399,   39.0365257,   8.98083496,   107.425858
   1400,   39.2942696,   5.99651194,   118.397179
   1401,   26.5741215,   12.4949522,    122.95826
   1402,   31.5646057,   24.7759132,   116.976418
   1403,  -1.00209415,   12.9690132,   16.5324898
   1404,   15.3733788,   34.9944801,    123.72023
   1405,   6.06748295,   37.7647362,    124.17144
   1406,  -32.8294868,  -25.9886513,   97.2462234
   1407,  -18.5104923,  -25.3239651,   22.6767025
   1408,  -21.3998985,  -18.9890442,   17.3300228
   1409,  -31.3102322,  -25.6999474,   23.2074242
   1410,  -10.7177219,  -27.4884663,   17.8698807
   1411,  -9.23195362,  -16.6260643,   17.7783165
   1412,  -32.9603882,   13.1038752,   25.2121544
   1413,  -40.1921463,   14.5945921,   33.4076881
   1414,  -41.5072861,   6.56250334,   36.0990257
   1415,  -41.7222519,   6.67710018,   26.3282127
   1416,  -29.6934261,   2.38911247,   17.3940487
   1417,  -27.6286602,   11.5467072,   17.0683193
   1418,  -26.8635159,    19.238245,   17.5785999
   1419,   4.68021917,     42.28862,    114.67009
   1420,   8.85593605,   41.2871513,   16.5694237
   1421,  -3.60549426,   38.6907234,   123.577614
   1422,   -30.628315,   29.4071903,   96.6650772
   1423,    18.369545,   35.9598579,   60.9807777
   1424,   21.8186703,  -4.99290752,   23.5516701
   1425,   27.0904465,  -15.6798191,   25.6125965
   1426,   33.2092171, -0.308938771,    26.163044
   1427,   -37.113369,   18.8915806,   61.4285698
   1428,  -36.5034637,   18.8124504,   71.0701981
   1429,   7.66730881,  -41.5745735,   43.0720444
   1430,  -2.32795477,  -25.3684711,   116.408379
   1431,   22.1345043,   30.8160114,   123.332001
   1432,  -38.1421776,   18.5340462,    24.095602
   1433,   15.5084085,  -11.1727171,   24.2014885
   1434,    0.2055742,   28.5441399,   22.8630486
   1435,   3.02093601,   20.9365063,   18.5685749
   1436,   11.7275925,   25.4961185,    25.065321
   1437,  -26.9830608,   12.0781279,   116.985298
   1438,  -34.0195351,   10.8110561,   112.306526
   1439,   20.6396065,    37.162941,   104.050262
   1440,   21.2303162,   35.6282883,   116.406281
   1441,    14.718955,   40.0615234,   106.201057
   1442,  -37.8023491,  -1.28739059,   16.1465034
   1443,   29.1241684, -0.0362961069,   122.333267
   1444,   17.9444199,   2.89459753,   122.545769
   1445,   32.6784515,   1.86488259,   103.155151
   1446,  -22.8522205,   8.96303272,   123.162552
   1447,  -12.3707876,   5.02911282,   123.646149
   1448,  -10.0694475,   14.7339697,   123.689003
   1449,   22.1864204,   36.1422729,   84.8188171
   1450,   20.4782162,  -37.2135277,   46.2354965
   1451,  -5.03587246,   6.44658375,    123.36306
   1452,  -4.63695717,    42.133873,   113.555969
   1453,   15.1394424,   37.6422615,   52.1328506
   1454,  -7.55882072,  -40.6227264,   75.8898392
   1455,   33.9053421,  -2.85913754,   112.155769
   1456,   23.1885281,  -25.8611393,   111.973274
   1457,   24.7035236,  -9.43502712,   114.893166
   1458,    29.221693,  -17.7870388,   112.155769
   1459,   42.4001503,  -2.15236306,   106.392929
   1460,   40.9732399,   1.20545638,   96.0267792
   1461,   41.0459709,  -10.8853731,   106.614357
   1462,  -29.3276291,   2.32932067,    122.46109
   1463,  -21.4507809,   32.2711372,   16.4484806
   1464,   33.7703743,   24.8089333,   42.7232742
   1465,   -42.123806,   5.03829479,   96.9012756
   1466,  -34.1096992,  -3.74835038,   103.715591
   1467,   -42.256218,  -3.37062001,   96.9012909
   1468,  -22.6249733,  -10.1877813,   114.056038
   1469,  -37.1119156,   20.2571507,   106.396896
   1470,   28.1793594,  -32.4171143,   24.6785831
   1471,   6.48769665,   41.5258789,   97.1339951
   1472,  -27.6029682,  -31.9117966,   56.1223679
   1473,   22.7314472,  -18.0284786,   17.3418274
   1474,   34.0620804,  -16.9872856,   17.1291294
   1475,  -6.15615654,   33.9505348,   111.689384
   1476,  -9.90659714,   33.9364586,   118.917908
   1477,  -17.2036724,  -38.5545158,   34.0773582
   1478,   28.1276264,   31.3776379,   104.065407
   1479,   40.8464508,  -9.72983456,   23.8040638
   1480,  -25.8166981,   19.4834614,   122.658623
   1481,  0.489649206,  -42.4536514,   73.3330994
   1482,   9.27160454,  -9.39505196,   17.4737568
   1483,  -2.15780783,  -9.67547035,   16.9439468
   1484,  -17.2574215,  -38.8702202,   43.7322083
   1485,  -8.28680992,  -41.8591728,   43.5037956
   1486,  -38.3453827,   6.57916546,   16.2500343
   1487,  -36.3869514,   25.4208202,    75.074646
   1488,  -29.2256889,   29.5796165,   77.7699814
   1489,  -37.6000938,   -12.897706,   70.0788498
   1490,  -40.1307411,  -2.02861404,   66.5025101
   1491,   16.4092197,  -25.2402439,   17.0312786
   1492,   19.3033466,   34.0671387,   69.1134796
   1493,  -34.3000526,   18.3952618,   78.8888931
   1494,    6.7418685,    30.329134,   17.4978371
   1495,   16.3521042,    24.469429,   17.7613277
   1496,   40.2573967,   11.0772676,   94.7976227
   1497,   31.0570374,  -23.0529919,   79.5066757
   1498,  -12.3707876,   5.02911282,   16.3538513
   1499,   39.3787651,  -1.69229555,   71.0007706
   1500,   42.5006866,  -5.77357435,   63.2111244
   1501,  -2.37381339,  -42.4769821,   106.331848
   1502,   4.05475569,  -42.2859612,   106.624817
   1503,   18.0296154,  -5.67939425,   123.628815
   1504,   18.4185429,  -5.69427776,   16.4848595
   1505,  -29.7618828,   29.6676693,   17.2209988
   1506,  -34.5558434,   25.1981335,   123.651833
   1507,  -34.9422836,   15.6195335,   123.250748
   1508,  -28.1670208,  -28.9498882,          70.
   1509,   5.23331833,  -30.8986206,   122.984337
   1510,   28.5728168,  -31.3413658,   96.7536774
   1511,    38.293045,  -20.2334957,   74.6374969
   1512,   34.4624557,  -24.5667934,   96.7826843
   1513,   15.0563602,   24.3893261,    122.54422
   1514,  -11.4216614,  -27.8147678,   122.093788
   1515,  -16.2353764,   38.8389626,   45.0474243
   1516,  -14.1475334,    39.658577,   16.2011204
   1517,   6.09203482,   41.4192162,   64.1666641
   1518,  -4.16050148,   37.0541992,   16.4814091
   1519,   38.7454567,  -3.60150123,    16.410717
   1520,  -32.8863068,  -26.2109966,   54.4985733
   1521,  -33.0891685,  -19.7612038,   17.0679016
   1522,  -29.5889606,  -7.39956379,   15.9845819
   1523,   30.5080872,   29.5107803,   36.1155815
   1524,  -42.3566475,  -2.55586171,    45.294239
   1525,  -40.5073166,  -11.6878481,   43.1426735
   1526,  -36.4653587,  -21.1182079,   33.8337364
   1527,  -37.2296982,  -19.3923759,   54.0178108
   1528,  -33.7484055,  -25.7320175,   46.3248444
   1529,  -38.0695572,   21.9022198,   16.0280609
   1530,   -11.580657,   40.5479279,   33.7706718
   1531,  -35.0056801,   15.2722006,   16.5041523
   1532,  -42.6739311,  -4.44401169,   33.7594414
   1533,   41.8300247,  -13.0193872,   78.8001404
   1534,  -25.2035789,   -28.200449,   17.1094875
   1535,  -17.7216625,  -38.5555954,   24.2788773
   1536,  -14.2583752,   -35.471241,   16.2021828
   1537,   27.0628242,   -26.514204,   16.6224136
   1538,   29.8096218,  -8.87775421,    17.228508
   1539,  -27.6253376,  -32.4230499,   25.3316765
   1540,  -39.9503326,  -14.7454014,   114.223328
   1541,  -31.1734715,   -28.662674,   104.749794
   1542,  -37.8691177,  -18.2622929,   97.0023575
   1543,   39.8143806,   2.89511442,   80.0313187
   1544,   17.3661461,  -13.8894672,   116.644531
   1545,   23.9329967,  -15.8637171,   122.658165
   1546,   30.3346882,  -9.00866318,   123.209831
   1547,   16.4092197,  -25.2402439,   122.968719
   1548,  -28.1886387,  -7.48033524,   123.674377
   1549,  -41.2909851,  -4.99253511,   116.903404
   1550,  -40.4609718,    4.9949069,   116.889763
   1551,  -41.9365311,   6.85641432,   106.653625
   1552,  -37.2975616,   6.72866726,   122.694176
   1553,  -7.89783001,  -40.1046219,   116.782478
   1554,   12.0465269,  -18.3026714,   18.0579758
   1555,  -3.34217072,  -31.9470882,   123.449135
   1556,   14.4337397,  -40.2110329,   106.421333
   1557,  -41.8439865,  -6.18632364,   75.0820618
   1558,   14.7926569,   34.7020264,   16.5230026
   1559,   12.0973339,   -18.646986,   122.452744
   1560,  -40.3431511,  -11.8919725,   52.5133934
   1561,  -12.4815989,   40.7536659,   115.113152
   1562,    -14.31952,    37.153183,   123.794022
   1563,  -7.36548948,   27.2093105,   17.4783325
   1564,  -12.4815989,   40.7536659,    24.886858
   1565,   10.9045115,   37.2059784,   68.8888931
   1566,   -3.7476306,  -32.2701187,   17.0285568
   1567,  -40.7159195,  -13.0176086,   33.6529198
   1568,   -37.498806,  -19.4137039,   43.9320526
   1569,  -30.5168648,  -29.5511131,   33.3489723
   1570,   14.8036938,  -39.7838173,   43.2173271
   1571,   21.0241547,  -32.3606148,   120.171814
   1572,   14.4652548,   39.6376762,    34.134922
   1573,   41.0459709,  -10.8853731,   36.3023071
   1574,  -41.9112358,   -2.8987782,   52.7300606
   1575,  -39.0858917,  -8.24939442,   61.2806091
   1576,  -18.5894012,   21.9226513,   17.3302822
   1577,   -42.189518,    4.4194746,   43.0205154
   1578,   27.1263847,   -32.163269,   77.0833282
   1579,   34.2155647,  -17.0457993,   123.272728
   1580,   40.2520447,  -7.91844225,   116.543159
   1581,   39.6056633,  -15.2527723,   113.972183
   1582,   33.6810608,   21.6466179,   33.4033852
   1583,   32.5312004,  -25.2388229,   118.027847
   1584,  -8.91130829,  -40.6803894,    32.438446
   1585,  -18.5894012,   21.9226513,   122.669716
   1586,  -10.9193459,    40.633091,   106.298752
   1587,   6.67053795,  -41.8896294,   96.7826843
   1588,  -37.8823204,  -1.71675646,    123.66745
   1589,   6.74402714,   8.25120354,    123.36306
   1590,   34.6878777,  -23.7527275,   106.133392
   1591,   37.9543915,  -19.0968685,   106.660118
   1592,  -39.6757355,  -10.3854523,   123.967606
   1593,   22.6206512,  -35.1347389,   87.6695099
   1594,  -40.5373421,   -10.986516,   96.6772079
   1595,   35.8108025,   17.2767029,   123.231377
   1596,  -33.3200874,  -20.3358917,   123.630234
   1597,  -15.6685648,  -35.5789871,    124.24736
   1598,   29.3936501,  -29.8920517,   87.6695099
   1599,    37.860363,  -4.32905006,   123.791924
   1600,   26.6932182,  -27.1407928,   123.464828
   1601,  -35.8732224,   1.92032623,   5.41582584
   1602,  -31.1753731,  -33.7645607,   5.27380085
   1603,  -26.2978401,  0.188301384,   5.02514076
   1604,   -24.988903,   10.5077047,   4.20225763
   1605,   36.3930244,  -25.2642517,   4.68523026
   1606,  -25.2158127,  -26.1982746,   5.00644016
   1607,  -18.4895039,  -32.9610672,    4.5287056
   1608,  -32.7222366,  -17.5258522,   4.57423592
   1609,  -23.8066063,  -15.9562292,   6.17488956
   1610,   15.4626894,   8.71605492,   5.17544031
   1611,  -13.0003519,  -12.5606928,   5.18528366
   1612,   -6.6787076,   -4.6428299,   5.10294724
   1613,  -4.24738932,   26.0028744,   5.33126879
   1614,  -15.7809114,    23.694521,   5.43858767
   1615,  -33.7787476,   13.4486351,   4.95784807
   1616,  -26.7717018,   26.0033188,   4.22276735
   1617,   7.25388718,   -6.9584589,   4.34360552
   1618,  -5.32911825,   6.10487461,   4.96940613
   1619,  0.836191297,  -38.3497391,   3.97939563
   1620,   11.3632793,  -36.5295906,   4.30867147
   1621,   44.3793945, -0.0786291957,   5.10615492
   1622,  -18.7713699,   40.9617157,    4.4149785
   1623,     28.16609,  -6.47363281,   4.61218071
   1624,    36.506176,   25.4915352,   5.24481392
*Element, type=C3D4
  1, 198, 774, 191, 239
  2, 774, 257, 267, 273
  3, 774, 239, 198, 257
  4, 151, 257, 195, 198
  5, 257, 195, 198, 774
  6, 775, 264, 272, 269
  7, 269, 180, 193, 775
  8, 192, 269, 180, 193
  9, 235,  46, 776,  45
 10, 180, 269, 270, 775
 11, 168, 270, 189, 180
 12, 270, 189, 180, 775
 13, 775, 270, 189, 264
 14, 777,  36, 215, 139
 15, 777,   1,  34, 140
 16, 777,   2,   1, 140
 17, 777, 140, 216,   2
 18, 166,  25, 776,  24
 19, 777, 216, 229, 215
 20, 216, 229, 778, 140
 21, 156, 139, 140, 229
 22, 779, 780, 164, 241
 23, 779, 243, 275, 235
 24, 779, 166, 781, 243
 25, 779, 194, 780, 275
 26, 779, 781, 166, 194
 27, 782, 783, 204, 230
 28, 276, 274, 278, 199
 29, 782, 784, 205, 785
 30, 786,  42,  27,  28
 31, 782, 784, 129, 154
 32, 782, 784, 230, 205
 33, 232, 141, 787, 217
 34, 229, 778, 249, 232
 35, 169, 778, 153, 232
 36, 229, 777, 140, 216
 37, 235, 776, 243,  45
 38, 788, 137, 213, 224
 39, 788, 218, 231, 214
 40, 788, 147, 218, 214
 41, 788, 224, 789, 137
 42, 788, 245, 231, 150
 43,  48,  49, 130,  21
 44, 788, 150, 231, 147
 45, 790, 165, 780, 242
 46, 790, 207, 275, 194
 47, 790, 242, 237, 253
 48, 781, 131, 194, 207
 49, 790, 237, 131, 159
 50, 171, 255, 176, 789
 51, 227, 155, 172, 226
 52, 788, 789, 245, 171
 53, 789, 245, 171, 255
 54, 789, 791, 260, 183
 55, 137, 224, 789, 136
 56, 786,  42, 159,  27
 57, 224, 136, 213, 212
 58, 212, 789, 224, 136
 59, 136, 137, 149, 789
 60, 776, 779, 161, 235
 61, 276, 196, 184, 174
 62, 792, 250, 190, 170
 63, 792, 256, 250, 170
 64, 252, 174, 163, 792
 65, 792, 262, 250, 256
 66, 792, 256, 793, 252
 67, 794, 167, 244, 234
 68, 794, 222, 167, 173
 69, 794, 188, 261, 173
 70, 166, 779, 161, 776
 71, 188, 261, 211, 794
 72, 794, 234, 158, 167
 73, 135, 188, 211, 158
 74, 243, 776,  44,  45
 75, 784, 795, 266, 785
 76, 784, 795, 793, 266
 77, 784, 793, 186, 178
 78, 784, 205, 785, 266
 79, 784, 793, 256, 266
 80, 156, 169, 778, 153
 81,  28,  29, 146,  41
 82, 791, 212,  40, 136
 83, 791, 212, 260, 219
 84, 789, 136, 791, 183
 85, 146, 260, 175, 219
 86, 791, 219,  41,  40
 87, 796, 797, 199, 278
 88, 796, 798, 259, 278
 89, 796, 199, 798, 278
 90, 796, 259, 260, 255
 91, 796, 797, 265, 185
 92, 187, 262, 190, 799
 93, 799, 276, 262, 196
 94, 799, 271, 276, 196
 95, 792, 276, 174, 196
 96, 262, 190, 196, 792
 97, 799, 271, 196, 197
 98, 800, 241, 164, 163
 99, 800, 240, 795, 236
100, 800, 220, 241, 240
101, 800, 795, 240, 793
102, 800, 163, 795, 793
103, 800, 795, 163, 160
104, 780, 263, 174, 252
105, 780, 275, 263, 241
106, 780, 263, 184, 174
107, 780, 798, 242, 165
108, 780, 798, 263, 242
109, 780, 242, 263, 275
110, 790, 194, 780, 165
111, 797, 258, 181, 192
112, 797, 181, 258, 265
113, 229, 139, 150, 156
114, 196, 274, 199, 192
115, 274, 199, 192, 797
116, 797, 274, 199, 278
117, 797, 265, 274, 278
118, 800, 236, 160, 220
119,  21, 160, 130,  48
120, 796, 259, 265, 278
121, 276, 262, 792, 252
122, 784, 793, 795, 186
123, 795,  48, 236, 206
124, 795, 785, 130, 206
125, 795, 785, 206, 266
126, 787, 227, 155, 172
127, 141, 778, 232, 153
128, 778, 217, 232, 216
129, 227, 155, 801, 208
130, 787, 227, 232, 208
131, 153, 141, 787, 232
132, 787, 208, 232, 217
133, 787, 208, 141, 132
134, 198, 277, 125, 151
135, 277, 125, 151, 802
136, 802,  54, 202, 201
137, 802,  15, 201, 125
138, 802, 277, 125, 201
139, 165, 175, 253, 790
140, 165, 790, 159, 175
141, 790, 275, 207, 242
142, 779, 781, 275, 243
143, 779, 275, 781, 194
144, 781,  44, 207, 243
145, 784, 154, 230, 170
146, 782,  19, 785,  50
147, 784, 256, 250, 230
148, 785,  50,  19,  20
149, 795, 130, 785, 186
150, 785, 130, 206,  49
151, 798, 278, 199, 184
152, 796, 182, 798, 199
153, 798, 259, 278, 263
154, 798, 259, 263, 242
155, 798, 175, 253, 165
156, 798, 253, 175, 182
157, 798, 253, 259, 242
158, 801, 208,  64,  63
159, 801,  62,  63,   7
160, 801,  62, 209,  63
161, 801,  63,   6,   7
162, 801, 155, 209, 133
163, 252, 793, 163, 241
164, 782, 154, 783, 230
165, 793, 256, 266, 240
166, 793, 800, 241, 240
167, 795, 186, 793, 163
168, 793, 252, 240, 241
169, 163, 792, 793, 252
170, 792, 174, 163, 178
171, 782, 128, 783, 154
172, 783, 230, 154, 228
173, 783, 203, 127, 144
174, 783, 204, 221, 128
175, 783, 203, 221, 228
176, 783, 228, 152, 127
177, 803, 267, 200, 195
178, 799, 197, 803, 271
179, 803, 272, 251, 271
180, 803, 267, 251, 272
181, 799, 251, 803, 187
182, 803, 193, 272, 197
183, 803, 272, 193, 200
184, 786, 237, 219, 253
185, 786, 175, 237, 253
186, 786, 175, 219, 146
187, 786, 237,  42, 219
188, 786, 146, 219,  41
189, 786, 219,  42,  41
190, 798, 263, 278, 184
191, 796, 185, 265, 255
192, 796, 265, 259, 255
193, 796, 260, 182, 183
194, 253, 165, 242, 798
195, 264, 191, 200, 273
196, 803, 187, 195, 200
197, 273, 239, 173, 191
198, 239, 774, 191, 273
199, 239, 261, 273, 173
200, 774, 239, 257, 273
201, 239, 222, 173, 143
202, 198, 239, 143, 162
203, 259, 253, 182, 260
204, 775, 193, 272, 264
205, 774, 273, 267, 200
206, 774, 267, 195, 200
207, 257, 151, 277, 198
208, 248, 257, 195, 225
209, 774, 195, 267, 257
210, 779, 780, 241, 275
211, 790, 780, 275, 242
212, 194, 207, 275, 781
213, 241, 252, 164, 163
214, 196, 262, 792, 276
215, 780, 241, 252, 164
216, 779, 164, 780, 194
217, 276, 278, 184, 199
218, 271, 274, 192, 269
219, 780, 263, 798, 184
220, 799, 262, 190, 196
221, 252, 276, 174, 792
222, 792, 178, 793, 256
223, 799, 197, 190, 187
224, 203, 228, 127, 225
225, 228, 230, 154, 170
226, 781, 131,  26,  25
227, 177, 170, 248, 228
228, 256, 178, 170, 792
229, 250, 170, 187, 190
230, 784, 178, 170, 256
231, 183, 255, 176, 796
232, 268, 172, 270, 246
233, 268, 246, 169, 172
234, 268, 269, 192, 258
235, 268, 249, 181, 169
236, 272, 200, 267, 264
237, 780, 252, 174, 164
238, 789, 183, 176, 149
239, 775, 193, 264, 189
240, 258, 268, 249, 181
241, 775, 269, 270, 264
242, 180, 269, 192, 268
243, 272, 264, 193, 200
244, 796, 797, 278, 265
245, 781, 207,  44,  43
246, 796, 259, 798, 182
247, 779, 800, 241, 164
248, 232, 246, 227, 172
249, 172, 232, 169, 153
250, 239, 198, 257, 277
251, 264, 254, 189, 191
252, 774, 200, 195, 191
253, 258, 268, 181, 192
254, 244, 222, 167, 794
255, 244,  12, 222,  57
256, 270, 247, 168, 189
257, 268, 246, 249, 169
258,  55,  56, 162,  14
259, 787, 217, 141, 208
260, 779, 194, 166, 161
261, 270, 246, 168, 247
262, 264, 254, 247, 189
263, 247, 226, 168, 233
264, 172, 168, 246, 226
265, 247, 254, 168, 189
266,  11, 234,  59,  58
267, 244,  58, 234,  11
268, 794, 244, 261, 234
269, 794, 234, 261, 211
270, 271, 269, 192, 193
271, 789, 137, 149, 788
272, 246, 227, 172, 226
273, 793, 178, 163, 186
274, 180, 268, 172, 270
275, 784, 785, 129, 186
276, 782, 204, 783, 128
277, 170, 228, 230, 250
278, 250, 262, 190, 187
279, 271, 197, 192, 196
280, 799, 190, 197, 196
281, 268, 180, 269, 270
282, 792, 252, 262, 256
283, 782, 784, 785, 129
284, 784, 256, 793, 178
285, 170, 256, 250, 784
286, 218, 215,  36, 139
287, 788, 231, 218, 147
288, 218,  32, 214, 147
289, 779, 241, 800, 235
290, 799, 262, 276, 271
291, 236,  48, 795, 160
292, 795, 236, 266, 206
293, 155, 787, 208, 227
294, 787, 172, 232, 227
295, 217, 778, 232, 141
296, 778, 217, 140, 141
297, 156, 229, 778, 249
298, 245, 265, 181, 185
299, 227, 226, 209, 155
300, 257, 277, 151, 225
301, 774, 195, 198, 191
302, 222,  56,  57,  13
303, 173, 261, 794, 222
304, 244, 167, 222,  12
305, 222, 261, 794, 244
306, 203, 802, 127, 126
307, 225, 802, 127, 203
308, 802, 151, 277, 225
309, 802, 126, 202,  54
310, 796, 797, 185, 199
311, 218,  37, 214,  32
312, 214, 213, 137,  38
313, 788, 214, 231, 224
314,   5, 141,   1,   2
315, 232, 246, 169, 249
316, 778, 216, 140, 217
317,   2, 141,   1, 140
318,   2,   5, 141, 217
319, 153, 787, 172, 232
320, 140, 229, 778, 156
321, 778, 232, 229, 216
322, 777, 140,  34, 139
323, 777,  34,   1,  35
324, 777,  35,   1,   2
325, 777,  36, 139,  33
326, 249, 231, 150, 229
327, 132, 787, 208, 155
328, 271, 272, 269, 193
329, 796, 255, 176, 185
330, 231, 139, 229, 215
331, 150, 231, 139, 229
332, 777, 216, 215,  35
333, 803, 248, 267, 195
334, 777,  35, 215,  36
335, 215, 139, 218, 231
336, 214,  38, 137,  31
337, 213, 212, 136,  39
338, 136, 791, 212, 789
339, 138, 137, 214, 788
340, 790, 237, 207, 131
341, 780, 798, 165, 184
342, 175, 790, 159, 237
343, 786, 253, 219, 175
344, 237, 253, 175, 790
345, 276, 274, 196, 271
346, 253, 260, 175, 182
347, 786,  42, 237, 159
348, 790, 165, 242, 253
349, 264, 191, 273, 254
350, 249, 229, 150, 156
351, 228, 152, 127, 177
352, 796, 260, 259, 182
353, 796, 260, 183, 255
354, 245, 258, 249, 181
355, 789, 149, 171, 788
356, 245, 265, 258, 181
357, 210, 226, 157, 148
358, 271, 274, 196, 192
359, 210, 223, 134,  61
360, 799, 271, 803, 251
361, 210, 226, 148, 223
362, 210, 157, 135, 134
363, 200, 273, 267, 264
364, 226, 233, 157, 168
365, 801, 155, 227, 209
366,  62, 142, 133, 223
367, 209, 133, 226, 223
368, 210,  60,  61, 134
369, 253, 260, 219, 175
370, 788, 214, 138, 147
371, 797, 192, 181, 185
372, 276, 263, 184, 278
373, 260, 789, 224, 212
374, 780, 263, 252, 241
375, 255, 260, 183, 789
376, 788, 171, 245, 150
377, 788, 213, 214, 224
378, 139, 218, 231, 147
379, 164, 800, 145, 779
380, 800, 236, 220, 240
381, 800, 145, 220, 160
382, 220, 145, 235,  46
383, 784, 266, 230, 205
384, 785, 266, 205, 206
385, 797, 199, 192, 185
386, 790, 237, 242, 207
387, 276, 199, 196, 274
388, 800, 795, 160, 236
389, 800, 241, 220, 235
390, 781, 207, 275, 243
391, 220,  47, 160, 145
392, 796, 182, 185, 176
393, 258, 192, 274, 269
394, 796, 199, 185, 182
395, 235,  23, 776,  46
396, 220,  46,  47, 145
397, 276, 263, 252, 174
398, 204, 221,  18,  51
399, 799, 187, 803, 197
400,  18, 128, 144, 221
401, 783, 230, 228, 204
402, 221, 128, 144, 783
403, 782, 784, 154, 230
404, 803, 271, 197, 272
405, 784, 795, 785, 186
406, 782, 785,  19, 129
407, 782,  50, 785, 205
408, 785, 205,  49, 206
409, 784, 230, 250, 170
410, 236, 160,  47,  48
411, 802, 277, 201, 202
412, 203,  53, 126,  16
413, 797, 265, 185, 181
414, 802, 225, 277, 202
415, 225, 228, 127, 177
416, 195, 225, 177, 248
417, 262, 251, 187, 250
418, 783, 127, 203, 228
419, 154, 228, 152, 783
420, 228, 170, 152, 177
421, 800, 235, 220, 145
422, 784, 230, 266, 256
423, 235, 243, 776, 779
424, 783, 204, 228, 221
425, 166, 243,  44, 781
426, 784, 170, 178, 154
427,  50,  19,  51, 204
428, 795, 266, 236, 240
429, 203,  52,  17, 221
430, 133, 226, 223, 148
431, 210, 233, 157, 226
432, 249, 171, 181, 169
433, 245, 171, 249, 150
434, 775, 272, 193, 269
435, 223, 142, 133, 148
436, 176, 789, 149, 171
437, 277, 162, 239, 198
438, 802, 202, 203, 225
439, 802, 225, 127, 151
440, 788, 171, 150, 149
441, 201,  55,  14,  15
442, 201, 277, 125, 162
443, 277, 238, 162, 201
444, 233, 188, 261, 211
445, 247, 254, 233, 168
446, 233, 168, 254, 179
447, 223,  61, 142, 134
448, 226, 209, 155, 133
449, 210, 157, 233, 211
450, 264, 200, 191, 189
451, 223, 209, 133,  62
452, 264, 193, 200, 189
453, 255, 245, 171, 185
454, 271, 193, 197, 272
455,  39,  30, 137,  31
456, 268, 169, 181, 180
457, 239, 173, 222, 261
458, 222,  13,  57,  12
459, 798, 259, 253, 182
460, 233, 188, 179, 254
461, 244,  58,  11,  12
462, 794, 158, 234, 211
463, 222, 238, 162, 239
464, 238, 277, 162, 239
465, 245, 181, 249, 171
466, 168, 246, 226, 247
467, 777,  35,  36,  34
468, 218,  36,  37,  33
469, 137, 136, 213, 224
470, 797, 274, 258, 192
471, 214,  38,  32,  37
472, 791, 136,  29, 146
473, 218,  36,  33, 139
474, 214,  32,  38,  31
475, 218,  37,  32,  33
476, 789, 255, 260, 224
477, 249, 778, 169, 232
478,  23, 776,  46,  24
479, 801,   6,  64,   5
480, 213,  38,  39, 137
481, 781,  44,  25,  26
482, 260, 791, 146, 183
483, 796, 183, 182, 176
484, 791, 146, 183, 136
485, 183, 260, 175, 146
486,  26,  43, 159, 131
487, 237,  42,  43, 159
488, 160, 130,  48, 795
489, 803, 248, 251, 267
490,  42,  43, 159,  27
491, 786,  28,  27, 146
492, 781, 131,  43,  26
493, 786, 146, 159, 175
494, 786, 146,  27, 159
495,  38,  39, 137,  31
496, 779, 243, 776, 166
497, 237, 207, 131,  43
498,  44, 776,  25,  45
499, 790, 165, 159, 131
500, 803, 187, 251, 248
501,  47,  23,  22, 145
502, 786, 237, 175, 159
503, 776, 243,  44, 166
504, 781, 166,  25,  44
505,  46,  47, 145,  23
506, 204,  19,  51,  18
507, 145, 779, 161, 164
508, 795, 240, 793, 266
509, 235, 161,  23, 145
510, 785,  49,  20, 130
511, 792, 190, 174, 178
512,  47,  22, 160, 145
513, 163, 252, 164, 174
514, 203, 144, 221,  17
515,  19, 782, 204,  50
516, 221,  52,  17,  18
517, 800, 145, 160, 163
518, 782, 129,  19, 128
519, 225, 151, 177, 127
520, 782,  19, 204, 128
521, 783, 128, 144, 152
522, 785, 129, 130,  20
523, 801,   7,   6, 133
524, 203,  53,  16,  17
525, 803, 272, 200, 267
526,  53,  54, 126,  16
527, 203, 127,  16, 126
528, 802,  54,  15, 126
529,  54, 126,  16,  15
530, 802, 125, 126,  15
531, 201,  54,  55,  15
532, 201, 125,  15,  14
533,  13, 222, 162, 143
534,  56,  14,  13, 162
535, 234,  11, 158, 167
536, 222,  12, 143,  13
537,  59, 135,  60, 211
538,  59,  60, 135,  10
539,  59,  11,  10, 158
540, 234, 158,  59, 211
541,   9, 134,  60, 135
542,  60, 135,  10,   9
543, 223,  62, 142,  61
544,  61,  62, 142,   8
545,  61, 134,   9,   8
546, 788, 231, 245, 224
547, 801,  62,   7, 133
548, 223, 134, 142, 148
549,  61, 134,   8, 142
550,  62,   8,   7, 142
551, 801, 133, 209,  62
552, 801,  63,  64,   6
553,   7,  62, 142, 133
554, 801, 208,   5,  64
555, 226, 133, 155, 148
556, 208, 155, 801, 132
557, 222, 162, 238,  56
558, 789, 245, 255, 224
559, 226, 148, 155, 172
560, 801, 209, 208,  63
561, 803, 187, 200, 197
562, 251, 250, 248, 187
563, 792, 250, 262, 190
564, 779, 800, 145, 235
565, 276, 199, 184, 196
566, 790, 780, 194, 275
567,  19, 204, 128,  18
568, 187, 248, 195, 177
569, 799, 271, 251, 262
570, 267, 257, 195, 248
571, 799, 251, 187, 262
572, 792, 170, 190, 178
573, 245, 185, 181, 171
574, 789, 791, 212, 260
575, 192, 268, 181, 180
576, 777, 215, 229, 139
577, 798, 184, 182, 165
578, 798, 184, 199, 182
579,  29, 146,  41, 791
580, 786,  41,  28, 146
581,  25, 776,  24,  45
582, 798, 165, 182, 175
583, 780, 194, 164, 184
584, 779, 275, 241, 235
585, 779, 194, 161, 164
586, 780, 165, 194, 184
587, 179, 191, 254, 173
588, 254, 168, 189, 179
589, 254, 179, 189, 191
590, 226, 168, 148, 172
591, 213,  39, 136, 137
592, 271, 193, 192, 197
593, 210, 148, 157, 134
594, 250, 248, 187, 170
595, 803, 197, 200, 193
596, 210, 134, 223, 148
597, 801, 208, 132,   5
598, 803, 195, 187, 248
599, 191, 254, 173, 273
600, 233, 157, 188, 211
601, 202,  54, 126,  53
602, 782, 205, 230, 204
603, 170, 228, 152, 154
604, 207, 131, 194, 790
605, 793, 252, 256, 240
606, 802, 126, 151, 127
607, 151, 225, 177, 195
608, 781,  26,  43,  44
609, 781, 131, 166, 194
610, 239, 143, 173, 198
611, 128, 204, 221,  18
612, 222, 143, 167, 173
613, 273, 254, 173, 261
614, 787, 153, 132, 141
615, 778, 141, 140, 153
616, 268, 180, 172, 169
617, 246, 172, 232, 169
618, 218, 147, 139,  33
619, 244, 167,  12,  11
620, 233, 179, 188, 157
621, 188, 211, 158, 794
622,  10, 135,  59, 158
623, 135,  59, 158, 211
624, 786,  28,  41,  42
625, 270, 247, 189, 264
626, 185, 255, 176, 171
627, 270, 246, 172, 168
628, 273, 191, 200, 774
629, 170, 248, 228, 250
630, 206,  48,  49, 130
631,  48, 160,  22,  21
632,  39, 136,  30,  40
633, 218,  33,  32, 147
634, 249, 169, 150, 171
635, 802, 201,  15,  54
636, 214,  31, 138,  32
637, 249, 156, 150, 169
638, 231, 147, 150, 139
639, 137, 214, 788, 213
640, 788, 138, 149, 150
641, 173, 261, 254, 188
642, 795, 186, 160, 130
643, 178, 792, 793, 163
644, 801, 209, 227, 208
645, 157, 211, 135, 188
646, 188, 261, 254, 233
647, 238,  56, 162,  55
648,  43, 159, 131, 237
649, 214,  31, 137, 138
650, 777,  33, 139,  34
651, 785, 205,  50,  49
652,  47,  48, 160,  22
653, 202, 126, 203,  53
654, 203, 127,  17,  16
655, 225, 177, 248, 228
656, 158,  11, 234,  59
657, 201,  55, 162,  14
658,  56,  13, 222, 162
659, 795, 163, 160, 186
660, 778, 140, 156, 153
661, 788, 147, 138, 150
662, 208, 132,   5, 141
663, 789, 255, 176, 183
664, 791, 136,  40,  29
665, 140, 217,   2, 141
666, 777,  35,   2, 216
667, 777,  34,  36,  33
668, 245, 265, 185, 255
669, 139, 140, 229, 777
670, 156, 249, 778, 169
671,  30, 136,  29,  40
672, 797, 258, 274, 265
673, 214,  32, 138, 147
674, 260, 182, 183, 175
675, 792, 196, 174, 190
676,  43, 159,  27,  26
677, 788, 149, 138, 137
678, 163, 793, 800, 241
679, 235, 161, 776,  23
680, 212, 136,  39,  40
681, 217, 216, 140,   2
682, 789, 149, 136, 183
683, 270, 180, 168, 172
684, 210, 135, 211,  60
685, 210, 135, 157, 211
686,  60,   9,  61, 134
687, 134,  60, 135, 210
688, 794, 167, 158, 188
689, 276, 263, 174, 184
690,  39, 137,  30, 136
691, 791,  41, 219, 146
692, 791,  41,  29,  40
693, 787, 155, 132, 153
694, 800, 163, 164, 145
695, 784, 186, 129, 154
696, 785,  49,  50,  20
697, 790, 165, 131, 194
698, 219, 791, 146, 260
699,  44, 166,  25, 776
700, 788, 789, 224, 245
701, 166,  24, 776, 161
702, 235,  46, 145,  23
703, 781,  25, 166, 131
704, 781, 207,  43, 131
705, 236,  47, 160, 220
706, 161, 776,  23,  24
707,  46, 776,  45,  24
708, 795, 206, 130,  48
709, 791, 212, 219,  40
710, 208,  64, 217,   5
711, 783, 152, 154, 128
712, 785, 129,  20,  19
713, 221,  51,  52,  18
714, 785, 186, 130, 129
715, 235, 779, 161, 145
716, 782, 204,  50, 205
717,  49,  21,  20, 130
718, 203,  53,  17,  52
719, 783, 221, 203, 144
720, 783, 127, 152, 144
721, 784, 154, 178, 186
722, 802, 125, 151, 126
723, 191, 239, 173, 198
724, 187, 177, 170, 248
725, 782, 154, 129, 128
726, 775, 189, 180, 193
727, 203,  17, 127, 144
728, 780, 164, 174, 184
729,   5,  64, 217,   2
730, 801, 132, 133,   6
731, 221, 144,  18,  17
732, 801,   5, 132,   6
733, 787, 153, 172, 155
734, 217,   5, 141, 208
735, 801, 133, 132, 155
736, 245, 150, 249, 231
737, 201, 238, 162,  55
738, 162, 277, 125, 198
739, 222, 143,  12, 167
740, 126, 202, 203, 802
741, 201, 125,  14, 162
742, 244,  58,  12,  57
743, 162, 239, 143, 222
744, 233, 179, 157, 168
745, 254, 188, 179, 173
746, 226, 148, 168, 157
747, 794, 173, 167, 188
748, 225, 257, 195, 151
749, 244,  11, 234, 167
 750,  804,  805,  806,  807
 751,  804,  807,  808,  805
 752,  804,  809,  810,  811
 753,  804,  811,  807,  809
 754,  804,  811,  810,  812
 755,  806,  804,  809,  810
 756,  804,  813,  811,  814
 757,  804,  815,  816,  817
 758,  818,  819,  820,  821
 759,  819,  820,  821,  822
 760,  822,  823,  824,  819
 761,  822,  824,  823,  820
 762,  825,  826,  827,  824
 763,  822,  806,  820,  809
 764,  813,  808,  828,  829
 765,  830,  831,  832,  833
 766,  830,  834,  831,  833
 767,  835,  836,  837,  838
 768,  835,  839,  840,  841
 769,  835,  839,  842,  840
 770,  843,  844,  845,  835
 771,  835,  846,  841,  844
 772,  847,  848,  849,  850
 773,  847,  851,  849,  852
 774,  853,  854,  855,  856
 775,  857,  858,  859,  851
 776,  847,  860,  850,  849
 777,  847,  858,  860,  849
 778,  847,  861,  862,  859
 779,  863,  864,  846,  839
 780,  863,  865,  866,  867
 781,  863,  865,  839,  866
 782,  868,  869,  815,  870
 783,  870,  871,  872,  869
 784,  870,  872,  873,  868
 785,  874,  875,  876,  877
 786,  877,  812,  843,  874
 787,  870,  815,  812,  874
 788,  804,  812,  815,  874
 789,  811,  878,  812,  814
 790,  811,  842,  812,  845
 791,  811,  810,  812,  842
 792,  879,  880,  881,  882
 793,  813,  883,  828,  807
 794,  813,  884,  878,  885
 795,  811,  813,  883,  886
 796,  813,  807,  811,  883
 797,  834,  831,  833,  886
 798,  834,  887,  831,  886
 799,  834,  886,  888,  883
 800,  889,  441,  440,  410
 801,  834,  890,  891,  833
 802,  834,  892,  893,  894
 803,  834,  890,  894,  893
 804,  810,  809,  895,  842
 805,  810,  896,  897,  827
 806,  810,  897,  896,  838
 807,  898,  838,  899,  810
 808,  900,  901,  902,  660
 809,  896,  810,  826,  827
 810,  806,  896,  838,  810
 811,  903,  806,  896,  838
 812,  822,  810,  826,  806
 813,  826,  822,  825,  810
 814,  904,  905,  906,  907
 815,  904,  908,  909,  910
 816,  904,  905,  907,  911
 817,  904,  911,  907,  912
 818,  904,  913,  914,  911
 819,  904,  913,  909,  914
 820,  915,  916,  917,  918
 821,  919,  571,  601,  570
 822,  920,  921,  922,  923
 823,  924,  832,  916,  915
 824,  864,  915,  918,  832
 825,  915,  925,  924,  832
 826,  915,  925,  832,  864
 827,  863,  926,  915,  927
 828,  915,  925,  928,  929
 829,  930,  931,  879,  932
 830,  830,  884,  930,  933
 831,  930,  884,  916,  933
 832,  930,  934,  879,  935
 833,  825,  827,  936,  937
 834,  822,  809,  810,  806
 835,  899,  938,  898,  825
 836,  825,  827,  939,  936
 837,  810,  895,  825,  898
 838,  825,  940,  938,  895
 839,  941,  827,  942,  824
 840,  827,  942,  824,  943
 841,  943,  826,  824,  827
 842,  943,  944,  945,  946
 843,  943,  827,  945,  944
 844,  943,  944,  946,  947
 845,  840,  948,  949,  950
 846,  835,  840,  898,  950
 847,  840,  842,  951,  839
 848,  952,  646,  953,  954
 849,  840,  841,  839,  948
 850,  840,  949,  898,  950
 851,  870,  873,  812,  815
 852,  812,  874,  878,  843
 853,  812,  878,  845,  843
 854,  955,  890,  956,  957
 855,  830,  955,  958,  890
 856,  830,  894,  834,  890
 857,  959,  960,  961,  962
 858,  830,  963,  955,  964
 859,  955,  963,  965,  966
 860,  955,  967,  964,  963
 861,  968,  191,  969,  189
 862,  970,  971,  972,  973
 863,  889,  410,  440,  409
 864,  955,  958,  965,  974
 865,  975,  547,  548,  578
 866,  830,  958,  955,  974
 867,  930,  884,  931,  916
 868,  930,  976,  913,  911
 869,  830,  913,  958,  974
 870,  920,  921,  624,  977
 871,  830,  913,  914,  958
 872,  913,  965,  909,  958
 873,  930,  934,  911,  978
 874,  913,  965,  958,  974
 875,  979,  653,  980,  684
 876,  913,  909,  914,  958
 877,  981,  642,  641,  611
 878,  913,  978,  911,  910
 879,  809,  883,  982,  811
 880,  813,  829,  983,  984
 881,  813,  887,  976,  984
 882,  813,  830,  831,  884
 883,  854,  485,  454,  455
 884,  804,  811,  813,  807
 885,  886,  813,  883,  887
 886,  985,  505,  536,  535
 887,  831,  886,  986,  833
 888,  830,  974,  930,  913
 889,  830,  974,  955,  963
 890,  877,  874,  843,  876
 891,  987,  988,  989,  990
 892,  991,  992,  877,  987
 893,  989,  987,  877,  988
 894,  988,  989,  872,  877
 895,  877,  873,  993,  843
 896,  877,  989,  872,  871
 897,  877,  994,  991,  987
 898,  890,  995,  957,  893
 899,  996,  997,  998,  952
 900,  995,  957,  956,  890
 901,  955,  957,  999,  958
 902,  955,  957,  956,  999
 903,  890, 1000,  833,  964
 904,  890,  956,  995, 1000
 905,  957,  860, 1001, 1002
 906,  860,  957,  894, 1003
 907,  955,  958,  890,  957
 908,  957,  999, 1003, 1004
 909,  886,  883,  982, 1005
 910,  886,  883, 1005,  888
 911,  834,  886,  883,  887
 912,  883,  888, 1006, 1007
 913,  883, 1008,  807,  821
 914,  886,  891,  888, 1005
 915,  946, 1009, 1010, 1011
 916,  834,  888,  886,  891
 917,  830,  832,  831,  884
 918,  811,  845,  831,  842
 919,  830,  831,  834,  887
 920,  811,  809,  842,  982
 921,  893,  888, 1012,  892
 922,  893, 1012, 1001,  892
 923,  834,  894,  887,  892
 924,  834,  893,  892,  888
 925,  806,  826,  820,  805
 926,  806,  826,  805,  816
 927,  811,  810,  842,  809
 928,  997,  644,  952,  675
 929,  822,  820,  806,  826
 930,  804,  806,  816,  815
 931,  804,  811,  812,  814
 932, 1013, 1014, 1015, 1016
 933,  888, 1012,  892, 1006
 934,  893, 1012,  888, 1017
 935,  888, 1005,  891, 1018
 936,  888, 1019, 1007, 1020
 937,  834,  887, 1021,  892
 938,  883, 1006,  888, 1021
 939,  888, 1007, 1019, 1006
 940,  806,  903,  815,  838
 941,  822,  825,  810,  940
 942,  810,  898,  825,  899
 943,  811,  809,  883,  807
 944,  883, 1021, 1008, 1006
 945,  883,  809,  821,  807
 946,  804,  810,  838,  812
 947, 1022,  151, 1023,  126
 948,  810,  898,  842,  895
 949,  806,  820,  809,  807
 950,  809,  895,  842,  982
 951, 1024, 1025, 1026, 1027
 952, 1024,  899,  897, 1028
 953, 1024, 1029, 1030,  837
 954, 1024, 1026,  897,  837
 955, 1031, 1032, 1033,  866
 956, 1034, 1035,  371, 1036
 957, 1037,  865,  927, 1038
 958,  867, 1038, 1033, 1039
 959,  865, 1037, 1040, 1041
 960,  865, 1037,  928, 1040
 961,  865,  948,  839,  866
 962,  865,  948, 1040,  839
 963,  865, 1040, 1032, 1041
 964,  865,  839, 1040,  928
 965,  925,  928, 1042,  951
 966,  925,  951,  864,  928
 967,  864,  925,  928,  915
 968,  928,  915,  927,  864
 969, 1000,  925,  832,  964
 970,  832, 1000,  833,  986
 971,  925,  832,  864,  986
 972,  830,  834,  833,  890
 973,  834,  886,  833,  891
 974,  830,  890,  958,  894
 975,  890,  957,  958,  894
 976,  890,  957,  894,  893
 977, 1043,  554,  555,  585
 978,  986,  925,  832, 1000
 979,  848,  984, 1044, 1045
 980,  848,  984, 1045,  852
 981,  848,  892,  983,  849
 982,  847,  849,  848,  852
 983,  952,  953,  644,  998
 984, 1046, 1047, 1048, 1049
 985, 1046,  836, 1050,  841
 986, 1051,  335,  346,  334
 987, 1046, 1052, 1049, 1053
 988, 1046, 1047, 1052,  992
 989,  838,  868,  873, 1054
 990,  872, 1055,  989, 1056
 991,  872,  988, 1057, 1058
 992,  987,  992,  877,  988
 993,  872,  868,  869, 1056
 994,  872,  869, 1059, 1056
 995,  872,  873, 1054, 1057
 996, 1060, 1061, 1062, 1063
 997,  996,  952,  998,  953
 998, 1062,  950, 1064,  949
 999,  949, 1065, 1064, 1066
1000,  949, 1064,  899,  950
1001,  949,  899, 1065,  898
1002,  949, 1067, 1065, 1063
1003,  949, 1067,  898, 1065
1004,  884,  832,  845,  931
1005,  813,  878,  811,  814
1006,  813,  976,  884,  885
1007,  830,  913,  930,  976
1008,  863,  918,  915,  926
1009,  933,  964,  830,  832
1010, 1068, 1069, 1070,  408
1011, 1071,  924,  917,  926
1012,  915,  924,  925,  929
1013,  916,  832,  931,  918
1014,  986,  831,  832,  842
1015,  137,  690,  691,   30
1016,  842,  831,  832,  845
1017,  884,  931,  845,  878
1018,  832,  931,  864,  845
1019,  931,  918,  864,  845
1020,  931,  845, 1072,  918
1021,  931, 1073, 1074,  879
1022,  931,  932,  916, 1075
1023,  931,  845,  878, 1074
1024,  930,  916,  931,  932
1025,  874, 1076,  875,  817
1026,  874, 1076, 1077,  875
1027,  804,  812,  874,  814
1028,  870,  815,  874,  869
1029,  874,  876,  875, 1077
1030,  874,  869,  815,  817
1031, 1078,  874, 1076, 1077
1032,  876,  871,  875, 1077
1033,  876, 1079, 1080, 1081
1034,  876,  991,  994,  987
1035,  876, 1082, 1077, 1079
1036, 1083, 1077, 1084, 1082
1037, 1085, 1086, 1087,  379
1038, 1088,  508, 1089, 1090
1039,  876, 1081,  994,  991
1040, 1091, 1092, 1093, 1094
1041, 1091, 1095, 1092, 1094
1042, 1091,  984,  905, 1096
1043, 1091,  885,  984, 1097
1044, 1091, 1098,  905, 1094
1045,  904,  905,  914,  851
1046,  905,  984,  852, 1096
1047, 1091, 1099,  905,  976
1048, 1100,  634,  635,  665
1049, 1091,  934,  976, 1095
1050,  885,  976, 1091,  984
1051,  964,  924,  832,  916
1052,  964, 1000,  833,  832
1053,  811,  831,  886,  842
1054,  955,  956,  964,  967
1055,  955,  967,  966, 1101
1056,  964,  916,  933, 1102
1057,  925,  832,  964,  924
1058,  925,  924, 1103, 1104
1059,  925, 1042,  928, 1105
1060,  918,  832,  931,  864
1061,  930,  884,  976,  935
1062,  864,  839,  842,  846
1063, 1106,  350,  328,  344
1064,  864,  839,  927,  928
1065,  828, 1107,  805, 1108
1066,  813,  830,  884,  976
1067,  828, 1108, 1008, 1021
1068,  813,  828,  883,  887
1069,  828, 1008,  805,  807
1070, 1109,  197,  190,  196
1071,  804,  816,  806,  805
1072,  943,  824,  826, 1110
1073,  943,  947, 1111,  944
1074,  943, 1111,  947, 1110
1075, 1112,  199,  185,  192
1076,  822,  820,  826,  824
1077,  822,  940,  821,  819
1078, 1110, 1113,  820,  826
1079, 1113, 1111,  826, 1110
1080, 1114, 1115, 1116, 1117
1081,  822,  819,  825,  940
1082,  870,  872,  868,  869
1083,  868, 1118, 1056, 1119
1084, 1118, 1120, 1121,  868
1085, 1087,  889,  409,  410
1086,  826,  896,  944,  903
1087, 1086,  889, 1087,  410
1088,  868,  815,  903,  838
1089,  810,  825,  895,  940
1090,  810,  899,  825,  827
1091,  826, 1110,  824,  820
1092,  868,  903, 1121, 1122
1093,  810,  806,  896,  826
1094, 1123,  437,  436,  406
1095,  804,  806,  809,  807
1096,  812,  838,  815,  873
1097,  868,  896,  838,  903
1098,  838,  804,  815,  806
1099,  838,  873, 1124, 1054
1100,  838,  836,  837, 1124
1101,  868, 1122,  896,  903
1102,  868, 1054,  838, 1119
1103,  948,  840,  841,  950
1104,  835,  838,  837,  898
1105,  810,  838,  899,  897
1106,  838,  837,  899,  897
1107, 1125,  422,  421,  391
1108,  835,  812,  810,  842
1109, 1126,  199,  196,  184
1110,  812,  870,  877,  873
1111,  874,  876, 1077, 1080
1112,  870,  877,  873,  872
1113, 1127,  414,  413,  383
1114,  813,  811,  884,  831
1115,  804,  813,  814,  808
1116,  804,  817,  874,  815
1117,  835,  812,  873,  838
1118,  864,  842,  845,  846
1119,  835,  810,  838,  898
1120,  864,  951,  842,  839
1121, 1128, 1129, 1086, 1087
1122,  811,  886,  982,  842
1123,  810,  809,  940,  895
1124,  813,  884,  811,  878
1125,  864,  846,  845,  918
1126,  828,  807,  808,  813
1127,  864,  986,  842,  951
1128, 1008, 1130, 1131, 1108
1129, 1068, 1132,  408,  409
1130, 1008, 1133, 1108, 1131
1131, 1021,  828,  883, 1008
1132, 1024,  899,  950,  837
1133, 1065,  938,  898,  899
1134, 1024,  950, 1134, 1029
1135,  899, 1064,  939, 1135
1136, 1024, 1136, 1064, 1028
1137,  930,  911,  934,  976
1138,  911, 1137,  912, 1138
1139,  911, 1099, 1139,  934
1140,  911, 1137,  907,  912
1141,  911, 1137, 1138,  978
1142,  911, 1137, 1139, 1099
1143,  940, 1140,  819,  937
1144,  940,  819, 1141,  821
1145,  940, 1142,  982, 1141
1146,  940,  895,  982, 1142
1147,  843, 1074,  994,  876
1148,  874,  870,  877,  812
1149,  877,  871,  876,  987
1150,  804,  814,  874,  817
1151,  875,  869, 1143,  871
1152,  874,  817,  875,  869
1153,  875, 1144, 1076, 1077
1154,  874,  817, 1078, 1076
1155,  957, 1003, 1145, 1004
1156,  830,  913,  976,  914
1157, 1003, 1146, 1004,  999
1158, 1003,  908,  909, 1147
1159, 1003, 1148,  909,  908
1160, 1003,  999, 1148, 1146
1161,  958, 1003,  849,  894
1162, 1003, 1147,  909,  858
1163,  957, 1003,  999,  958
1164, 1003,  849,  909,  958
1165, 1047, 1048, 1049, 1149
1166,  968, 1150,  179,  189
1167, 1047, 1081,  994, 1149
1168, 1151,  185,  199,  182
1169, 1047, 1090, 1149, 1089
1170, 1152, 1049, 1089, 1153
1171, 1049, 1089, 1153, 1047
1172, 1154,  395, 1011,  426
1173,  909,  914,  958,  849
1174,  904,  914,  909,  851
1175,  909,  965,  910, 1155
1176,  904, 1156,  851, 1147
1177,  904,  910,  912,  908
1178,  909, 1148,  965, 1155
1179,  958,  894,  849,  830
1180,  957, 1001,  893, 1157
1181, 1003,  957,  894,  958
1182, 1145,  957,  860, 1003
1183,  909,  965, 1148,  999
1184,  834,  890,  893,  891
1185, 1157,  995,  957,  956
1186,  894,  887,  892,  849
1187,  834, 1021,  883,  888
1188, 1158, 1159,  427, 1160
1189,  888, 1005, 1018, 1020
1190,  883, 1005,  888, 1007
1191,  903,  815, 1121,  816
1192, 1008, 1108,  805, 1130
1193,  828,  887,  983, 1021
1194,  813,  828,  983,  829
1195,  806,  903,  816,  815
1196,  804,  808,  814,  817
1197,  834,  888,  892, 1021
1198,  930,  913,  974,  978
1199,  930,  913,  978,  911
1200,  966,  965,  910,  974
1201,  830,  894,  849,  887
1202,  913,  974,  910,  965
1203,  974,  966, 1161,  910
1204,  830,  887,  914,  976
1205,  909,  849,  851,  914
1206,  890,  964,  956, 1000
1207, 1158,  426, 1011,  427
1208, 1162,  196,  190,  174
1209,  933, 1102, 1163, 1164
1210,  974,  933, 1164,  963
1211,  933, 1163, 1102,  916
1212,  831,  845,  884,  832
1213,  934,  932,  978,  930
1214,  830,  933,  930,  974
1215,  974,  933,  932, 1164
1216,  974,  963, 1164, 1165
1217,  913,  910,  974,  978
1218, 1102, 1103,  967,  964
1219, 1166,  919, 1167,  881
1220, 1168, 1166, 1169, 1170
1221, 1166, 1139,  934, 1171
1222, 1166, 1172,  879, 1173
1223, 1166, 1167, 1168, 1174
1224, 1166, 1167, 1174, 1173
1225,  888, 1005, 1020, 1007
1226, 1005,  891, 1018,  959
1227,  891, 1175, 1000,  959
1228,  886, 1005,  986,  891
1229, 1175, 1005,  891,  986
1230, 1005, 1175,  982,  986
1231,  894, 1003,  849,  860
1232,  541,  511, 1176, 1177
1233,  847,  850,  860,  862
1234,  860, 1002,  862, 1178
1235,  957, 1004, 1002, 1157
1236,  957,  894,  893, 1001
1237, 1145, 1003, 1146, 1004
1238, 1003, 1179,  860, 1145
1239,  827,  824,  941,  937
1240, 1180, 1181,  326,  307
1241,  827,  945, 1135, 1182
1242,  827,  939, 1182, 1135
1243,  944,  827,  826,  943
1244,  825,  937,  940,  819
1245,  903, 1183,  853, 1122
1246,  835,  841,  846,  839
1247,  840,  898, 1067,  895
1248,  899,  939, 1064, 1065
1249, 1184, 1185, 1186,  616
1250,  810,  899,  827,  897
1251,  938,  939,  899, 1065
1252, 1058, 1187, 1188, 1189
1253, 1190,  356, 1189, 1188
1254,  840,  898,  949, 1067
1255,  836,  873,  838,  835
1256, 1191,  863,  846,  866
1257,  863,  864,  839,  927
1258,  863,  866, 1191, 1192
1259,  835,  845,  842,  846
1260,  863,  927,  915,  864
1261,  835,  898,  840,  842
1262,  863,  915,  918,  864
1263,  865,  866, 1032,  948
1264,  863,  839,  865,  927
1265,  839,  928,  951, 1040
1266,  894,  849,  892, 1001
1267,  890,  891,  833, 1000
1268,  887,  983, 1021,  892
1269,  887,  831,  886,  813
1270,  974,  963,  966,  965
1271,  828,  805, 1107, 1193
1272,  813,  885,  814,  808
1273,  813,  829,  885,  808
1274,  887,  849,  983,  892
1275,  813,  887,  984,  983
1276,  887,  984,  849,  914
1277,  885,  878, 1078, 1080
1278, 1194, 1180,  302, 1195
1279, 1091,  976,  885, 1095
1280,  983, 1196, 1021,  892
1281,  813,  885,  984,  976
1282,  884,  878,  885,  935
1283,  885, 1078,  814,  808
1284,  848,  983,  984,  849
1285,  813,  828,  887,  983
1286,  849,  852,  914,  984
1287,  847,  852,  859,  851
1288,  806,  810,  838,  804
1289,  847,  849,  851,  858
1290,  830,  887,  834,  894
1291,  860,  850,  849, 1001
1292,  847,  862,  860,  858
1293, 1091, 1094,  905, 1099
1294,  830,  964,  955,  890
1295,  905,  851,  906,  852
1296,  904,  906,  851, 1197
1297,  955,  958,  999,  965
1298, 1091, 1095, 1094,  934
1299,  830,  963,  964,  933
1300,  964,  830,  832,  833
1301,  905,  914,  852,  984
1302,  905,  911,  914,  976
1303,  849,  851,  914,  852
1304,  807,  808,  813,  804
1305,  813,  984,  885,  829
1306,  905, 1096,  852,  906
1307,  984, 1096, 1045,  852
1308,  887,  914,  976,  984
1309, 1198,  562,  592,  561
1310,  884,  933,  832,  916
1311,  828, 1199,  983, 1044
1312,  904,  909,  908, 1147
1313,  984,  829, 1096, 1097
1314,  848, 1200, 1201, 1202
1315, 1044, 1203, 1107, 1204
1316, 1044, 1193, 1203, 1205
1317,  984, 1206, 1044, 1045
1318, 1044, 1200, 1203, 1204
1319, 1044, 1205, 1203,  975
1320, 1044, 1045, 1206,  975
1321,  877,  994,  843,  993
1322,  873,  843,  844,  993
1323, 1124,  873,  838,  836
1324,  822,  809,  821,  940
1325,  824,  822,  825,  826
1326,  871,  870,  877,  875
1327, 1121,  868,  869,  815
1328,  840,  841,  950,  835
1329,  835,  950,  837,  836
1330,  873,  836,  993,  844
1331,  835,  898,  837,  950
1332, 1114, 1116, 1115, 1207
1333, 1114,  146, 1116, 1207
1334,  898, 1067,  895, 1065
1335,  900,  658,  627,  628
1336, 1208,  560,  590,  559
1337, 1046,  836,  844,  993
1338,  949, 1065,  899, 1064
1339, 1114,  146,   28,   29
1340,  950, 1209,  841,  948
1341,  950,  837,  836, 1029
1342, 1046,  836,  841,  844
1343,  836, 1209, 1029, 1210
1344,  836, 1124, 1211, 1210
1345,  841, 1191,  844,  866
1346, 1046,  841, 1191,  844
1347,  845, 1072,  846,  844
1348, 1046, 1050,  836, 1211
1349,  841, 1212,  866, 1213
1350,  822,  825,  819,  824
1351,  950,  948, 1062, 1209
1352,  841,  866, 1214, 1213
1353,  841, 1214,  866,  948
1354, 1170,  632,  601,  602
1355,  839,  841,  866,  948
1356, 1067, 1065,  938,  895
1357, 1067, 1065, 1215,  938
1358, 1216, 1217,  618,  649
1359,  949, 1067, 1063, 1061
1360, 1215, 1067, 1218, 1063
1361, 1063, 1067, 1218, 1219
1362, 1040,  948, 1061, 1067
1363, 1220, 1221, 1222, 1223
1364, 1218, 1040, 1219, 1067
1365, 1190, 1180, 1195,  302
1366,  868,  896, 1122, 1119
1367,  885, 1095,  935, 1080
1368,  868,  838,  873,  815
1369, 1224,  577,  607,  576
1370,  929,  915,  927,  928
1371,  925,  986,  864,  951
1372,  844,  845,  835,  846
1373, 1225,  416,  446,  415
1374,  809,  940,  982,  821
1375,  885,  878,  814, 1078
1376,  874,  817,  814, 1078
1377,  999,  965, 1101,  955
1378,  884,  885,  976,  935
1379,  840,  951,  842,  895
1380,  813,  831,  830,  887
1381,  931, 1226, 1072, 1073
1382, 1227, 1010, 1160,  942
1383,  843,  878, 1074, 1080
1384, 1228,  166,  194,  161
1385,  887,  983,  849,  984
1386, 1004, 1145, 1229, 1146
1387, 1004, 1157, 1230, 1002
1388, 1004, 1231,  956,  999
1389, 1004,  956, 1232, 1157
1390, 1004, 1157, 1232, 1233
1391, 1234, 1235,  968,  173
1392, 1004,  957,  956, 1157
1393, 1004,  999, 1146, 1231
1394,  956, 1000, 1236,  995
1395,  955,  956, 1231,  999
1396, 1190, 1180, 1189, 1195
1397,  999, 1004,  957,  956
1398,  973, 1237,  413, 1127
1399,  890, 1000,  995,  891
1400, 1238, 1096,  829, 1097
1401, 1091, 1096, 1239, 1097
1402, 1091,  976,  934, 1099
1403,  805, 1240, 1130, 1107
1404,  817,  816,  808, 1193
1405,  816,  808, 1193,  805
1406,  924, 1198, 1103, 1104
1407,  925, 1104, 1103, 1241
1408,  832,  964,  916,  933
1409,  924,  917, 1102, 1071
1410,  964, 1103,  924, 1102
1411,  906, 1242, 1098, 1243
1412,  906,  852, 1197, 1244
1413, 1096,  852, 1243, 1045
1414, 1096, 1245, 1098, 1239
1415, 1156,  906,  904, 1197
1416, 1246, 1156, 1247,  906
1417,  906,  852,  851, 1197
1418,  904,  906,  905,  851
1419,  905,  907, 1099, 1094
1420,  905, 1098,  907, 1094
1421,  890,  893,  891,  995
1422,  984, 1044, 1206,  829
1423,  984, 1045, 1096, 1206
1424,  848,  983, 1044,  984
1425,  848, 1200, 1044, 1199
1426, 1202, 1044,  975, 1045
1427,  949, 1065, 1066, 1063
1428, 1248,  537,  568,  567
1429,  844, 1048, 1072, 1191
1430,  884,  935,  931,  878
1431,  843, 1048,  994, 1074
1432,  872, 1056, 1057, 1054
1433, 1130, 1111,  816,  826
1434,  844, 1048, 1191, 1049
1435,  873,  812,  843,  877
1436,  993,  836, 1211, 1046
1437,  294,  384,   94,    3
1438,  868,  873, 1054,  872
1439,  993, 1057,  988, 1124
1440,  877,  993,  992,  994
1441,  993,  992, 1211,  988
1442,  843,  993,  994, 1048
1443, 1046, 1212,  841, 1050
1444, 1072,  863,  846, 1191
1445, 1081,  994, 1149, 1074
1446,  994, 1149, 1074, 1048
1447, 1048, 1072, 1073, 1074
1448, 1048, 1072, 1249, 1073
1449, 1048, 1072, 1191, 1249
1450, 1047, 1048, 1149,  994
1451, 1047,  992, 1250, 1251
1452,  956, 1252, 1232,  995
1453,  956, 1000, 1253, 1236
1454, 1000, 1103, 1236, 1241
1455,  830,  832,  884,  933
1456,  956, 1252, 1236, 1253
1457, 1254,  341,  324,  331
1458,  956, 1253, 1103,  967
1459,  955,  974,  965,  963
1460,  956, 1255, 1232, 1252
1461,  866, 1192, 1256, 1257
1462,  971,  443, 1258, 1259
1463,  863, 1192, 1191, 1072
1464, 1260, 1013, 1129, 1086
1465,  863,  918, 1192, 1072
1466,  950, 1209, 1134, 1029
1467,  951, 1067, 1218,  895
1468,  841,  948, 1209, 1214
1469,  948, 1209, 1214, 1015
1470,  948, 1062, 1209, 1015
1471, 1251, 1237,  973, 1127
1472, 1061, 1060, 1062,  948
1473,  840, 1067,  949,  948
1474,  877,  993,  872,  988
1475,  845,  843, 1048,  844
1476,  931, 1072,  845, 1074
1477,  876, 1084,  987, 1077
1478, 1261,  593,  623,  592
1479,  845, 1072, 1048, 1074
1480,  874, 1078,  814,  878
1481,  876,  987, 1084,  991
1482, 1103, 1253, 1208, 1262
1483, 1263, 1102, 1103,  967
1484, 1103, 1198, 1102, 1263
1485,  925,  929,  924, 1104
1486, 1103, 1241, 1208, 1236
1487,  957,  894, 1001,  860
1488,  964, 1103,  956, 1000
1489, 1101,  965,  966,  955
1490,  955,  963,  966,  967
1491,  910,  966, 1161, 1264
1492,  870,  868,  873,  815
1493,  868, 1119, 1122, 1118
1494, 1056, 1055, 1194, 1265
1495, 1056, 1266, 1119, 1118
1496, 1056, 1059, 1055, 1265
1497, 1267, 1178, 1184, 1001
1498, 1052,  971,  973, 1268
1499, 1267, 1001,  892,  850
1500,  860, 1001, 1267,  850
1501, 1267, 1269, 1012, 1270
1502, 1267,  861,  862,  850
1503, 1267, 1012, 1184, 1270
1504, 1130, 1113, 1271, 1272
1505, 1130, 1111, 1113, 1273
1506, 1144,  514,  513,  483
1507, 1130, 1113, 1272, 1273
1508, 1008,  821,  818,  820
1509,  824,  823, 1274, 1275
1510,  825,  827,  899,  939
1511,  943, 1110,  826, 1111
1512,  824, 1110, 1274,  823
1513,  824,  823, 1275,  937
1514,  825,  936,  939,  938
1515,  190, 1229,  170,  187
1516,  822,  819,  820,  823
1517, 1276, 1020, 1277,  524
1518, 1222, 1026, 1266, 1119
1519,  896, 1119,  944, 1122
1520, 1119,  897,  944, 1222
1521, 1222, 1119, 1266, 1122
1522, 1122, 1119, 1266, 1118
1523,  896, 1119,  897,  944
1524, 1119,  897, 1026, 1054
1525,  877,  994,  876,  843
1526,  987,  871, 1278,  989
1527,  871,  987,  877,  989
1528,  987,  991, 1279, 1084
1529, 1280,  966, 1281, 1282
1530, 1280, 1283,  966, 1282
1531, 1284, 1216,  620,  651
1532, 1285,  923, 1282, 1280
1533, 1280, 1283, 1165,  966
1534, 1280, 1165, 1285, 1164
1535, 1095, 1078, 1286, 1080
1536, 1095, 1080, 1079, 1287
1537, 1095, 1288, 1094,  934
1538,  885, 1095, 1080, 1078
1539,  976, 1095,  934,  935
1540, 1192, 1289, 1290, 1191
1541, 1192, 1289, 1291, 1290
1542, 1192,  926, 1292, 1293
1543, 1192, 1292,  867, 1291
1544,  841, 1209, 1050, 1213
1545,  866, 1191,  844,  846
1546, 1046, 1053, 1191, 1212
1547,  835,  810,  812,  838
1548,  873,  836, 1124,  993
1549, 1294, 1295, 1296, 1297
1550, 1297, 1298, 1244, 1295
1551, 1297, 1234,  859, 1244
1552, 1299, 1300, 1175, 1301
1553,  833,  986, 1000,  891
1554, 1280,  967, 1281,  966
1555, 1102, 1302,  923, 1303
1556,  924, 1102, 1103, 1198
1557, 1102,  916, 1163,  917
1558,  924,  916, 1102,  917
1559, 1102, 1302, 1304, 1163
1560, 1102, 1302, 1303, 1305
1561, 1102, 1302, 1305, 1304
1562, 1306, 1307, 1308, 1309
1563, 1306, 1310, 1311, 1308
1564, 1306, 1120, 1118, 1312
1565, 1306, 1313, 1309, 1311
1566,  965, 1155, 1148, 1264
1567, 1155,  908, 1314,  912
1568, 1155,  910,  912, 1138
1569, 1155, 1161,  910, 1138
1570, 1155, 1315, 1264, 1161
1571, 1155, 1264, 1315, 1112
1572, 1155,  908, 1316, 1314
1573,  911, 1139, 1137,  978
1574, 1137, 1317, 1138,  978
1575, 1047,  991,  994, 1081
1576, 1047, 1090,  991, 1081
1577, 1149, 1088,  882, 1318
1578, 1149, 1090, 1088, 1089
1579, 1149, 1073,  880, 1074
1580, 1149, 1249, 1089, 1318
1581, 1149,  882, 1073, 1249
1582, 1157, 1319, 1320,  995
1583, 1157, 1002, 1321, 1230
1584, 1004, 1145, 1002, 1230
1585, 1157, 1232, 1319,  995
1586,  957, 1157, 1002, 1001
1587,  860,  850, 1267,  862
1588, 1002,  862, 1322, 1145
1589, 1157, 1001, 1320, 1321
1590,  860,  862, 1002, 1145
1591,  288,   69, 1323,  358
1592,  860, 1002, 1178, 1001
1593,  922, 1324, 1325, 1261
1594, 1326, 1045, 1294, 1202
1595, 1045, 1202, 1326,  975
1596,  940,  895, 1140,  938
1597, 1045, 1327, 1206,  975
1598, 1096, 1224, 1045, 1243
1599, 1045, 1206, 1327, 1224
1600, 1247,  968, 1234, 1197
1601, 1197, 1247, 1150, 1156
1602, 1197, 1247,  968, 1150
1603, 1197,  851,  857,  859
1604,  852,  851, 1197,  859
1605, 1096, 1243,  906, 1098
1606,  896,  944,  827,  826
1607,  939, 1328, 1329, 1065
1608,  939, 1065, 1330, 1064
1609,  939, 1331, 1135, 1064
1610,  939, 1331, 1182, 1135
1611,  898,  938, 1065,  895
1612,  827, 1182,  939,  936
1613, 1332,  939, 1331, 1182
1614,  939, 1328,  938,  936
1615,  939, 1328, 1065,  938
1616,  853, 1333,  854, 1334
1617,  903,  853,  816, 1121
1618,  853,  816, 1273, 1111
1619,  853, 1273, 1333, 1335
1620,  853, 1111, 1335, 1183
1621,  865,  928, 1037,  927
1622, 1037, 1336, 1105,  499
1623, 1037, 1336,  499,  500
1624, 1201, 1337, 1338,  861
1625, 1201, 1337, 1339, 1338
1626, 1267,  850, 1201,  861
1627, 1201, 1202, 1340, 1337
1628,  146,   28, 1207, 1114
1629, 1267, 1341, 1201, 1196
1630,  924,  917,  926,  915
1631,  863,  864,  918,  846
1632,  925, 1042, 1241,  986
1633, 1342, 1323,  359,  358
1634,  865,  866,  867, 1033
1635, 1037, 1343,  928, 1040
1636,  865,  839,  928,  927
1637,  928, 1040, 1343, 1042
1638, 1073,  879, 1173,  882
1639,  884,  916,  832,  931
1640, 1073, 1248, 1249,  882
1641, 1149, 1081, 1074,  880
1642, 1048, 1149, 1073, 1249
1643,  931, 1072, 1074, 1073
1644, 1226, 1192, 1072, 1289
1645, 1289, 1290, 1191, 1344
1646, 1192, 1257, 1191, 1290
1647, 1192, 1293, 1289, 1226
1648, 1192, 1072, 1289, 1191
1649,  866, 1192,  867, 1256
1650,  918, 1226, 1192, 1072
1651, 1289, 1249, 1226, 1345
1652, 1289, 1293,  985, 1226
1653,  857,  858, 1346,  859
1654,  862, 1346, 1347,  996
1655,  850, 1202, 1201, 1337
1656,  862, 1322,  996, 1178
1657,  862,  858, 1346, 1179
1658,  847,  859,  862,  858
1659, 1091, 1096,  905, 1098
1660,  852, 1294, 1045, 1202
1661,  848,  849,  850,  892
1662,  828,  983,  829, 1044
1663,  847,  852, 1337,  859
1664, 1199, 1196, 1021,  983
1665,  847, 1337,  850,  861
1666,  868,  896, 1119,  838
1667,  816, 1348, 1273, 1240
1668,  812,  804,  815,  838
1669,  867,  502, 1292,  533
1670,  805,  816, 1240, 1193
1671,  828,  805, 1008, 1108
1672, 1008,  805,  820, 1130
1673, 1130, 1108, 1107, 1349
1674,  826,  805, 1130,  820
1675,  828, 1199, 1108, 1021
1676, 1193,  817, 1350,  808
1677,  816, 1193, 1351, 1240
1678, 1044, 1193, 1205,  829
1679,  828, 1193, 1044,  829
1680,  805, 1130, 1108, 1107
1681,  874,  876, 1080,  843
1682, 1047,  992,  991, 1250
1683,  846,  841,  844,  866
1684,  992,  991, 1250,  990
1685, 1046,  992, 1052, 1211
1686, 1047, 1052,  992, 1251
1687, 1048, 1047,  992,  994
1688,  992,  990,  987,  991
1689, 1108, 1349, 1352, 1353
1690, 1108, 1196, 1021, 1199
1691, 1008, 1108, 1133, 1021
1692, 1108, 1353, 1196, 1199
1693,  828, 1021,  983, 1199
1694, 1354,  513, 1355,  544
1695, 1354,  513, 1356, 1355
1696, 1284,  621,  651,  620
1697, 1354, 1177,  543, 1239
1698, 1354, 1286, 1357, 1177
1699, 1304, 1358,  596, 1359
1700,  849,  830,  914,  958
1701,  955,  890,  964,  956
1702,  860, 1178, 1267, 1001
1703, 1001, 1178, 1184, 1321
1704, 1002,  862, 1178, 1322
1705,  894,  860,  849, 1001
1706, 1003,  860, 1179,  858
1707, 1097, 1354, 1239, 1286
1708, 1238, 1354, 1097, 1360
1709, 1354, 1286, 1356, 1357
1710, 1113,  489,  488,  458
1711, 1304, 1359,  596,  565
1712, 1177, 1286, 1092, 1239
1713, 1094, 1176, 1288, 1095
1714, 1286, 1176, 1177, 1092
1715, 1071,  565, 1361, 1359
1716,  986, 1175, 1000,  891
1717,  915,  924,  917,  916
1718,  141,    1,  695,  665
1719,  915,  926,  918,  917
1720,  930,  931,  884,  935
1721, 1171,  934,  932,  978
1722,  916,  918, 1075,  917
1723, 1354,  512, 1357, 1356
1724,  989, 1058, 1187,  990
1725,  510,  541,  511, 1176
1726, 1177, 1357,  512,  511
1727, 1286, 1177, 1176, 1357
1728, 1177,  541, 1362, 1176
1729, 1177,  573, 1092, 1362
1730, 1177,  574, 1092,  573
1731, 1100,  636,  666,  635
1732, 1177,  574, 1239, 1092
1733, 1044, 1204, 1107, 1199
1734, 1203,  517, 1204,  548
1735, 1085, 1129, 1363, 1087
1736, 1203,  548, 1204,  975
1737,  974,  966, 1165, 1161
1738,  974,  978,  910, 1161
1739, 1280, 1302, 1164, 1285
1740,  963, 1280, 1102, 1164
1741, 1280, 1285, 1165, 1283
1742,  925, 1103,  964, 1000
1743,  925,  964, 1103,  924
1744,  925, 1241, 1000,  986
1745, 1000, 1175, 1241, 1236
1746, 1241, 1236, 1175, 1299
1747, 1103, 1104, 1262, 1241
1748, 1241, 1364, 1365, 1208
1749, 1204, 1349, 1366, 1107
1750, 1204, 1367, 1366,  517
1751, 1204,  580, 1200,  579
1752, 1204,  580, 1353, 1200
1753, 1044, 1204, 1199, 1200
1754, 1204, 1353, 1199, 1200
1755, 1203, 1204, 1200,  975
1756,  579, 1204,  975, 1200
1757, 1204, 1349, 1353, 1368
1758, 1137, 1099,  907, 1369
1759,  907, 1369, 1370,  912
1760,  907, 1246, 1371, 1098
1761,  907, 1370, 1369, 1246
1762,  906, 1197, 1247, 1244
1763,  831,  832,  833,  986
1764,  904, 1156, 1197,  851
1765,  852, 1197, 1244,  859
1766,  885,  984, 1097,  829
1767, 1085, 1129,  290,  300
1768, 1372,  451,  481,  450
1769, 1206, 1096, 1224, 1045
1770, 1095, 1079, 1286, 1176
1771,  911,  910,  978, 1138
1772, 1095, 1092, 1094, 1176
1773, 1091, 1239, 1092, 1097
1774, 1239, 1092, 1093, 1091
1775,  816,  817, 1121, 1348
1776,  823, 1110, 1373,  820
1777, 1110, 1373,  820, 1113
1778, 1113, 1110, 1373, 1159
1779, 1130, 1111,  826, 1113
1780, 1374, 1231, 1375, 1376
1781, 1374, 1231, 1255, 1232
1782, 1374, 1376, 1377, 1231
1783, 1374, 1378, 1255, 1379
1784, 1374, 1376, 1380, 1228
1785, 1374, 1377, 1228, 1379
1786, 1307,  944, 1183, 1381
1787, 1122, 1307,  944, 1183
1788, 1381,  947,  944, 1183
1789, 1382, 1051, 1383,  334
1790, 1009, 1307, 1154, 1381
1791, 1008,  807,  820,  805
1792, 1383, 1266, 1384, 1051
1793,  905, 1098, 1096,  906
1794, 1008, 1131, 1130, 1385
1795, 1196,  848,  983, 1199
1796, 1108, 1133, 1021, 1196
1797,  830,  974,  963,  933
1798,  883, 1008,  821, 1006
1799,  883,  982,  811,  886
1800,  813,  831,  886,  811
1801,  813,  830,  976,  887
1802,  913,  910,  909,  965
1803,  964,  967,  956, 1103
1804,  925, 1000, 1241, 1103
1805,  883, 1007, 1006,  821
1806,  821, 1007, 1386,  883
1807,  893, 1001, 1017, 1320
1808,  893, 1018,  891,  995
1809, 1004, 1229, 1145, 1230
1810,  830,  976,  930,  884
1811,  869, 1059,  855, 1387
1812, 1056, 1055,  989, 1194
1813,  872,  868, 1056, 1054
1814,  875,  869,  817, 1076
1815,  869, 1387, 1388, 1143
1816, 1056,  872, 1055, 1059
1817,  875, 1143,  869, 1388
1818,  869, 1056,  868, 1120
1819,  869,  817, 1351, 1348
1820,  815, 1121,  816,  817
1821,  896,  944,  903, 1122
1822,  853, 1121,  869, 1348
1823,  819, 1389, 1390, 1391
1824, 1051,  347, 1027, 1025
1825,  806,  826,  903,  896
1826, 1348,  853,  854,  855
1827,  903, 1111,  853, 1183
1828,  853, 1308, 1122, 1183
1829, 1239, 1286, 1092, 1097
1830, 1357,  481, 1356,  512
1831, 1177, 1357,  511, 1176
1832, 1392,  480, 1393, 1357
1833, 1357, 1077, 1392, 1079
1834, 1051, 1027,  347,  346
1835,  510,  511, 1392, 1176
1836, 1164, 1394, 1285, 1395
1837, 1164, 1394, 1317, 1165
1838, 1171, 1394, 1317, 1164
1839,  963,  967, 1280,  966
1840, 1148,  999,  965, 1101
1841, 1102, 1163, 1164, 1302
1842, 1393, 1392, 1077, 1083
1843, 1077, 1084, 1082,  876
1844, 1083,  448, 1084, 1396
1845, 1083, 1392, 1082,  479
1846, 1083, 1393,  480,  449
1847, 1386,  883,  982,  821
1848,  886,  986, 1005,  982
1849, 1005, 1007, 1386, 1020
1850,  828,  883, 1008,  807
1851,  883, 1007, 1386, 1005
1852,  957, 1157,  893,  995
1853, 1005, 1020,  959, 1018
1854,  885, 1095, 1078, 1097
1855, 1371, 1098, 1397, 1398
1856, 1371, 1098, 1246, 1242
1857, 1371, 1369, 1399, 1400
1858, 1400, 1371, 1401, 1100
1859, 1371, 1246, 1402, 1242
1860, 1371, 1402, 1246, 1401
1861, 1051,  347, 1403,  343
1862, 1371, 1369, 1401, 1246
1863, 1113, 1273, 1111, 1158
1864, 1113, 1273,  457, 1272
1865, 1273, 1272,  456,  457
1866, 1130,  816, 1273, 1240
1867,  853, 1273,  816, 1348
1868,  853, 1111, 1273, 1335
1869, 1273, 1272, 1333,  456
1870, 1049, 1052, 1153, 1268
1871, 1048, 1049, 1249, 1191
1872, 1047, 1052, 1251, 1153
1873, 1049, 1191, 1344, 1249
1874, 1149, 1049, 1089, 1249
1875,  909,  851,  858, 1147
1876,  909,  999,  958,  965
1877,  879, 1173,  882,  881
1878, 1073, 1074,  879,  880
1879,  879, 1287, 1074,  935
1880, 1236, 1253, 1364, 1208
1881, 1299, 1364, 1365, 1241
1882, 1236,  960,  959, 1299
1883,  959, 1236, 1000, 1018
1884, 1236,  959,  960,  961
1885,  959, 1018,  962, 1236
1886, 1295, 1404,  670, 1405
1887, 1406, 1364, 1252, 1253
1888, 1407, 1066, 1408, 1409
1889, 1407, 1410,  348, 1408
1890, 1407, 1060, 1062, 1063
1891, 1407, 1062, 1411, 1066
1892, 1407, 1411, 1062, 1410
1893,  825,  898,  895,  938
1894, 1412,  941, 1413, 1414
1895, 1412, 1182,  936, 1415
1896, 1412, 1182, 1416, 1417
1897, 1412, 1417, 1418,  945
1898, 1415, 1182, 1416, 1412
1899, 1412,  941,  942, 1227
1900, 1419, 1405,  670,  671
1901, 1412,  941, 1227, 1413
1902, 1084, 1083, 1082,  448
1903, 1393,  987, 1372, 1278
1904, 1393, 1356, 1372, 1077
1905,  987, 1083, 1396, 1278
1906, 1420,  321,  312,  342
1907, 1393, 1372,  481,  450
1908, 1393, 1372,  450, 1278
1909, 1074, 1080, 1287,  880
1910, 1048, 1149, 1074, 1073
1911,  992, 1211, 1251, 1052
1912, 1072, 1073, 1226, 1249
1913, 1074, 1081, 1080,  880
1914,  815,  869, 1121,  817
1915, 1332, 1328, 1329,  939
1916, 1065, 1215, 1329, 1063
1917,  949, 1067, 1061,  948
1918,  895,  938, 1218, 1140
1919,  826,  805,  816, 1130
1920,   86,  285,  376,  313
1921,  840,  951, 1067, 1040
1922, 1421,  672,  167, 1405
1923,  893, 1157, 1001, 1320
1924,  879,  880, 1074, 1287
1925, 1422, 1341,  582,  613
1926,  886,  982,  842,  986
1927,  931,  879, 1074,  935
1928, 1286, 1077, 1080, 1078
1929,  963, 1280,  967, 1102
1930,  869, 1388, 1423,  875
1931,  806,  826,  816,  903
1932, 1059, 1056,  869, 1120
1933,  874,  843, 1080,  878
1934,  875, 1076, 1144, 1423
1935,  817, 1076, 1350, 1078
1936,  817, 1076, 1351, 1350
1937,  869,  817, 1076, 1351
1938,  819, 1140, 1141, 1389
1939,  819,  823,  937, 1391
1940, 1067, 1215, 1065, 1063
1941,  819,  818,  820,  823
1942, 1032, 1033,  866,  865
1943, 1008, 1021, 1133, 1006
1944, 1352, 1108, 1353, 1196
1945,  821,  982, 1386, 1141
1946, 1005,  883,  982, 1386
1947,  835,  843,  812,  845
1948,  982, 1175,  951,  986
1949, 1005, 1386,  982, 1175
1950,  825,  940,  937,  938
1951,  811,  845,  812,  878
1952,  840, 1040,  948,  839
1953, 1303,  595,  625,  594
1954,  845,  846, 1072,  918
1955, 1008, 1131, 1385, 1133
1956, 1007,  821,  818, 1006
1957, 1046,  993,  844, 1048
1958, 1124,  988, 1424, 1057
1959,  992,  988, 1251, 1211
1960,  988, 1425, 1211, 1424
1961,  988, 1425, 1426, 1251
1962,  988,  990, 1251, 1426
1963,  872,  988, 1058,  989
1964,  988, 1058,  990, 1426
1965,  823,  820, 1373, 1427
1966,  819,  818,  823, 1391
1967, 1007,  818, 1276, 1006
1968,  818, 1006, 1428, 1276
1969,  819, 1389, 1141, 1390
1970,  818, 1141, 1276, 1390
1971,  818,  823, 1391, 1427
1972,  832,  842,  864,  986
1973,  899,  898,  950,  837
1974, 1031, 1429, 1256,  471
1975,  841,  866, 1212, 1191
1976, 1209, 1050, 1013, 1210
1977, 1016, 1209, 1013, 1210
1978, 1209, 1210, 1016, 1134
1979,  836, 1124, 1210, 1029
1980, 1024,  950, 1029,  837
1981, 1192, 1256, 1291,  867
1982, 1419,  640, 1296,  641
1983,  846, 1191,  844, 1072
1984,  864,  839,  928,  951
1985, 1231, 1376, 1377,  967
1986, 1281, 1376, 1430,  966
1987, 1280,  923, 1102, 1302
1988, 1404, 1431,  135,  157
1989,  930,  974,  933,  932
1990, 1432,  398,  367,  368
1991,  848, 1044, 1200, 1202
1992,  956, 1253,  967, 1255
1993, 1280, 1281,  967,  923
1994,  933,  963, 1102, 1164
1995,  956, 1000, 1103, 1253
1996,  845,  843, 1074, 1048
1997, 1124, 1433, 1211, 1210
1998,  836, 1124, 1029,  837
1999, 1124, 1030, 1029,  837
2000,  836, 1210, 1211, 1050
2001, 1124,  993,  836, 1211
2002,  915,  924,  929,  926
2003,  872,  993,  873, 1057
2004,  809,  982,  940,  895
2005, 1306, 1312, 1310, 1120
2006, 1306, 1118, 1434, 1312
2007,  853, 1118, 1122, 1308
2008, 1118, 1122, 1435, 1266
2009, 1118, 1266, 1435, 1436
2010, 1118, 1312, 1120, 1436
2011, 1002, 1001, 1321, 1178
2012, 1267,  892, 1001, 1012
2013, 1267, 1422, 1178,  861
2014, 1339, 1201, 1338, 1341
2015, 1197,  857,  968, 1234
2016,  848, 1202, 1201,  850
2017, 1002, 1145, 1322, 1437
2018, 1002, 1438, 1178, 1321
2019, 1201,  850, 1337,  861
2020,  847,  861,  859, 1337
2021, 1439, 1440, 1441, 1243
2022, 1286, 1080, 1077, 1079
2023, 1442,  370,  369,  283
2024, 1405,  672,  167,  671
2025, 1091, 1092, 1095, 1097
2026,  911,  910, 1138,  912
2027,  904,  911,  912,  910
2028, 1137, 1443, 1369, 1444
2029, 1094, 1098, 1371, 1398
2030, 1094, 1371, 1399, 1398
2031, 1094, 1399, 1371, 1445
2032, 1099, 1139,  934, 1288
2033, 1137, 1139, 1099, 1445
2034,  907, 1099, 1371, 1369
2035,  827, 1135,  945,  944
2036,  827,  897, 1135,  944
2037,  838,  897, 1119, 1054
2038,  868,  903,  815, 1121
2039, 1056, 1118, 1120, 1436
2040, 1119, 1122, 1222,  944
2041, 1024, 1028,  897, 1026
2042, 1392,  511,  510,  480
2043, 1164, 1171, 1172,  932
2044,  974, 1165, 1164,  978
2045, 1280, 1282, 1285, 1283
2046, 1280, 1282, 1281,  923
2047, 1354, 1177, 1357,  512
2048,  543, 1177,  574, 1239
2049,  309, 1188,  286, 1190
2050, 1419,  641, 1296,  981
2051, 1446,  187, 1447, 1448
2052, 1096, 1098, 1245, 1243
2053, 1097, 1350,  829, 1238
2054, 1449, 1096, 1224, 1206
2055, 1267, 1178,  862,  861
2056, 1046, 1211, 1052, 1053
2057, 1191, 1450, 1053, 1258
2058, 1191, 1450, 1257, 1212
2059, 1049, 1089, 1249, 1152
2060, 1046, 1049, 1191, 1053
2061, 1049, 1344, 1191, 1258
2062, 1048, 1149, 1249, 1049
2063, 1046,  844, 1191, 1049
2064, 1289, 1191, 1249, 1344
2065, 1049, 1052, 1268, 1258
2066,  943,  945,  827,  942
2067, 1024,  897,  899,  837
2068, 1179, 1447, 1451, 1448
2069, 1145, 1447, 1179, 1446
2070,  899, 1135, 1028, 1064
2071,  897, 1135,  944, 1220
2072,  899,  827, 1135,  939
2073, 1146, 1148, 1447, 1109
2074,  835,  812,  843,  873
2075,  895,  951,  982, 1142
2076,  951, 1040, 1042, 1218
2077,  982, 1142,  951, 1175
2078,  951, 1042,  986, 1175
2079, 1040,  951, 1067, 1218
2080, 1452,  641,  642,  672
2081,  835,  873,  844,  836
2082,  940,  895, 1142, 1140
2083, 1453, 1348,  855,  869
2084, 1351,  816, 1348,  817
2085,  870,  869,  875,  871
2086, 1222, 1307, 1381,  944
2087,  944, 1222, 1307, 1122
2088, 1109, 1447,  190,  197
2089,  897, 1220,  944, 1222
2090, 1119, 1266, 1054, 1026
2091, 1056, 1119, 1266, 1054
2092,  924, 1198, 1454, 1305
2093,  863, 1072,  846,  918
2094,  917, 1071,  926, 1293
2095,  932, 1163,  916, 1075
2096,  885,  878, 1080,  935
2097, 1163,  916, 1075,  917
2098,  863,  926, 1192,  918
2099,  967, 1231, 1255, 1377
2100, 1263,  922,  923,  967
2101,  955, 1231,  967, 1101
2102,  956, 1231, 1232, 1255
2103, 1137, 1369, 1443, 1455
2104, 1317,  978, 1161, 1138
2105, 1317, 1394, 1171, 1169
2106, 1317, 1164,  978, 1171
2107, 1165, 1394, 1317, 1456
2108, 1137, 1138, 1317, 1457
2109, 1317, 1456, 1394, 1458
2110, 1455, 1137, 1139, 1457
2111, 1459, 1170, 1139, 1460
2112, 1139, 1171,  978,  934
2113, 1166,  934, 1139, 1288
2114, 1139, 1460, 1288, 1445
2115, 1166, 1171, 1168, 1169
2116, 1139, 1169, 1461, 1455
2117, 1461, 1170, 1139, 1459
2118,  499, 1105,  529,  530
2119, 1037,  927,  929, 1039
2120, 1336, 1104,  929, 1105
2121, 1336, 1039,  531,  500
2122, 1273, 1348, 1333, 1240
2123, 1273, 1272, 1240, 1333
2124, 1145, 1462, 1230, 1229
2125, 1145, 1230, 1462, 1437
2126, 1145, 1322, 1446, 1179
2127, 1145, 1146, 1447, 1229
2128, 1157, 1230, 1233, 1004
2129, 1003, 1145, 1146, 1179
2130, 1145, 1146, 1179, 1447
2131, 1002, 1145,  957,  860
2132, 1091,  885, 1097, 1095
2133,  905,  976,  914,  984
2134, 1463,   75,  364,  279
2135, 1206,  829, 1205, 1238
2136, 1206, 1238, 1205, 1449
2137, 1045, 1243, 1224, 1327
2138,  975, 1449, 1327, 1206
2139,  577,  975, 1449, 1327
2140, 1229, 1447,  187,  190
2141, 1055,  871,  989, 1464
2142,  877,  875,  876,  871
2143,  872, 1057, 1056, 1058
2144, 1056, 1265, 1194, 1436
2145, 1320, 1017, 1277, 1465
2146, 1185, 1321, 1001, 1184
2147,  893, 1157, 1320,  995
2148, 1320, 1319, 1466, 1467
2149, 1320, 1017, 1185, 1321
2150, 1320, 1017, 1465, 1185
2151, 1004, 1230, 1233, 1468
2152, 1465, 1321, 1466, 1320
2153, 1164, 1394, 1172, 1171
2154, 1165, 1164,  978, 1317
2155, 1164, 1163, 1395, 1285
2156, 1164,  978, 1171,  932
2157, 1394, 1285,  900, 1456
2158, 1201, 1202, 1200, 1340
2159, 1438, 1178, 1469,  954
2160, 1470,  411,  380,  381
2161, 1471, 1326, 1045, 1294
2162, 1202, 1340, 1337,  981
2163,  905,  852,  914,  851
2164, 1298, 1247,  968, 1234
2165, 1202,  981, 1337, 1294
2166, 1337, 1294,  852, 1202
2167, 1105,  499, 1343, 1037
2168, 1106,  328, 1411, 1408
2169, 1072, 1289, 1191, 1249
2170, 1039,  927,  867, 1038
2171, 1037, 1336, 1039,  929
2172,  814, 1078,  817,  808
2173,  928, 1042,  951, 1040
2174,  927,  926,  929,  867
2175,  863,  846,  866,  839
2176, 1109, 1451, 1447,  197
2177, 1065,  939, 1330, 1329
2178,  920,  625,  655,  624
2179, 1061, 1040, 1041, 1032
2180, 1040, 1472, 1343, 1042
2181, 1032,  865,  948, 1040
2182,  822,  809,  820,  821
2183,  878,  935, 1074, 1080
2184, 1425, 1251,  973, 1127
2185, 1425,  972, 1473, 1474
2186, 1425,  970, 1013, 1473
2187, 1013, 1433, 1211, 1425
2188, 1425, 1211, 1424, 1433
2189, 1425, 1211,  970, 1052
2190,  859, 1337, 1294,  852
2191,  906, 1246,  907, 1098
2192,  860,  862, 1179,  858
2193, 1003,  849,  860,  858
2194,  862, 1322, 1179, 1346
2195, 1197,  857, 1147,  968
2196,  974,  966,  963, 1165
2197,  999, 1231, 1101, 1146
2198,  847,  850,  862,  861
2199,  859, 1475, 1476, 1234
2200, 1235,  859,  857, 1346
2201, 1044,  975, 1206, 1205
2202, 1095,  935, 1287,  934
2203, 1095, 1097, 1286, 1078
2204,  828, 1193,  829,  808
2205,  829, 1350, 1078,  808
2206,  892,  848,  983, 1196
2207,  905, 1099,  911,  976
2208, 1201, 1200, 1196, 1353
2209,  848,  849,  984,  852
2210, 1197,  859, 1234, 1244
2211, 1203, 1204,  517, 1367
2212, 1337,  847,  850, 1202
2213, 1199, 1108, 1353, 1204
2214,  904,  909,  913,  910
2215, 1008, 1385, 1130,  820
2216, 1211, 1050, 1053, 1046
2217,  873, 1057,  993, 1124
2218, 1424, 1124, 1433, 1211
2219,  857, 1448, 1147,  969
2220, 1477,  438,  437,  407
2221, 1124, 1057, 1030, 1054
2222, 1242, 1478, 1440,  637
2223, 1425, 1479, 1426, 1251
2224,  830,  964,  890,  833
2225, 1322, 1346, 1448, 1179
2226, 1322,  177, 1446, 1448
2227, 1322, 1480, 1446,  177
2228,  957, 1002, 1004, 1145
2229, 1322, 1437, 1480,  996
2230, 1481,  564, 1071, 1304
2231, 1481, 1454,  532,  563
2232, 1481, 1305, 1454,  563
2233,  924, 1481, 1454,  929
2234,  967,  922, 1255, 1253
2235, 1003,  999,  909, 1148
2236,  955,  999, 1231, 1101
2237, 1232, 1378, 1468, 1233
2238, 1157, 1319, 1232, 1466
2239, 1157, 1321, 1002, 1001
2240, 1232, 1378, 1284, 1255
2241,  956, 1255,  967, 1231
2242,  886,  986,  833,  891
2243,  370,   81,   80,  284
2244,  909, 1155,  910,  908
2245,  909,  851,  849,  858
2246,  892, 1006, 1012, 1133
2247,  828, 1108, 1199, 1107
2248,  959, 1005,  891, 1175
2249, 1108, 1352, 1131, 1133
2250,  826, 1113,  820, 1130
2251, 1000, 1018,  891,  959
2252, 1311,  425,  424,  394
2253,  888, 1020, 1017, 1019
2254, 1024,  837, 1030, 1026
2255, 1024,  899, 1028, 1064
2256, 1029, 1030, 1482, 1027
2257, 1029, 1134, 1483, 1016
2258, 1209, 1134, 1029, 1210
2259, 1024, 1030, 1029, 1027
2260,  865, 1032, 1033, 1038
2261, 1024, 1134,  950, 1064
2262, 1214, 1061, 1477, 1032
2263,  948, 1032, 1061, 1214
2264, 1032, 1061, 1484, 1041
2265, 1214, 1477, 1485, 1032
2266, 1061, 1063, 1123, 1219
2267, 1061, 1060, 1123, 1063
2268,  829, 1350, 1205, 1238
2269, 1193,  829, 1350, 1205
2270, 1201, 1339, 1337, 1340
2271, 1108, 1107, 1204, 1199
2272,  848, 1200, 1199, 1196
2273, 1202,  847,  850,  848
2274, 1243, 1247, 1295, 1244
2275, 1234,  173, 1421, 1235
2276,  906, 1156,  907, 1246
2277,  907, 1156,  906,  904
2278, 1197,  859,  857, 1234
2279, 1442,  369, 1486,  283
2280, 1297, 1475,  859, 1234
2281, 1452, 1421, 1476, 1297
2282, 1244, 1298, 1247, 1295
2283, 1244, 1247, 1298, 1234
2284,  859, 1235, 1476, 1347
2285, 1131, 1487, 1428, 1133
2286,  955,  956,  967, 1231
2287, 1131,  521, 1487, 1488
2288,  834,  883, 1021,  887
2289, 1130, 1271, 1349, 1272
2290, 1108, 1131, 1352, 1349
2291,  924, 1102, 1305, 1071
2292,  924,  929, 1454, 1104
2293, 1219, 1040, 1041, 1061
2294,  950, 1134, 1209, 1062
2295,  857,  191, 1448,  969
2296,  933, 1164, 1163,  932
2297, 1037, 1040, 1041, 1343
2298, 1336,  929, 1454, 1039
2299,  865, 1037, 1041, 1038
2300, 1277,  524,  555, 1276
2301, 1020, 1489, 1386,  959
2302,  888, 1006, 1019, 1017
2303, 1007, 1020, 1490, 1386
2304, 1005,  959, 1020, 1386
2305, 1020, 1277, 1017, 1019
2306, 1093, 1091, 1098, 1239
2307,  968,  189,  969, 1150
2308,  906,  852, 1244, 1243
2309,  907, 1094, 1098, 1371
2310, 1094, 1445, 1371, 1099
2311, 1092, 1239, 1093,  574
2312, 1206, 1238, 1096,  829
2313, 1176, 1092, 1094, 1362
2314, 1130, 1385, 1131, 1271
2315, 1131,  520, 1352,  519
2316, 1131, 1385,  521, 1271
2317, 1349, 1107, 1204, 1108
2318, 1204, 1108, 1353, 1349
2319, 1368, 1352,  519, 1349
2320, 1057, 1058, 1383, 1194
2321, 1349, 1272, 1366, 1240
2322, 1349, 1272,  518, 1366
2323, 1204,  518, 1349, 1368
2324,  943,  942,  946,  945
2325, 1381, 1463,  946, 1009
2326,  903, 1122,  944, 1183
2327,  826,  903, 1111,  816
2328, 1129,  300,  337,  290
2329, 1491,  337,  303,  290
2330, 1474,  293,  301,  304
2331,  875, 1077,  871, 1372
2332, 1356, 1492, 1360, 1355
2333, 1356, 1355,  513, 1492
2334, 1356, 1077, 1144, 1372
2335, 1095, 1286, 1092, 1176
2336, 1354, 1356, 1360, 1355
2337, 1356, 1144,  513,  482
2338, 1360, 1356, 1286, 1077
2339, 1487, 1133, 1493, 1428
2340, 1488, 1487, 1133, 1270
2341, 1487,  553, 1270,  552
2342, 1487, 1428,  553,  522
2343, 1487, 1428,  522,  521
2344,  838, 1054, 1124,  837
2345,  925,  986,  951, 1042
2346,  854,  484,  453,  454
2347,  925, 1105,  929, 1104
2348, 1494,  311, 1495,  333
2349, 1288, 1445, 1496, 1094
2350, 1046,  993,  992, 1211
2351,  879, 1497, 1173, 1172
2352, 1073, 1248, 1075, 1226
2353,  133, 1402,  142,  667
2354, 1003,  908, 1179, 1148
2355, 1498,  351,  344,  341
2356, 1418,  305,  331,  281
2357, 1499,  540,  570,  539
2358,  380,  291,   90,  290
2359, 1085, 1129,  300, 1363
2360, 1094, 1099,  934, 1288
2361, 1085,  379,  378,   89
2362, 1095,  935, 1080, 1287
2363,  885, 1095,  976,  935
2364, 1432,  399,  398,  368
2365,  356,  355,  286,   66
2366, 1090,  509, 1500,  508
2367,  842,  982,  951,  986
2368,  879, 1172,  934,  932
2369, 1057, 1051, 1266, 1383
2370, 1180,  309,  307,  326
2371, 1501,  625, 1502,  656
2372, 1057, 1266, 1194, 1383
2373, 1041,  498,  467,  468
2374, 1184,  585, 1185,  616
2375, 1503,  181,  171,  169
2376, 1057, 1054, 1026, 1030
2377, 1057, 1054, 1266, 1026
2378, 1266, 1057, 1026, 1051
2379, 1057, 1030, 1482, 1433
2380,  378,   88, 1363, 1085
2381, 1057, 1433, 1504, 1424
2382,  988,  990,  987,  992
2383, 1453,  869, 1388, 1423
2384, 1505,  366, 1010,  365
2385, 1085,   89,  378,   88
2386,  870,  877,  872,  871
2387, 1312,  391, 1342,  360
2388, 1484,  437,  467,  436
2389,  875,  869, 1076, 1423
2390, 1081, 1080,  876, 1074
2391, 1113, 1110, 1159, 1158
2392,  875, 1372, 1143, 1388
2393,  871, 1372, 1278, 1464
2394, 1194,  989, 1195, 1265
2395,  877,  873,  872,  993
2396,  870,  874,  875,  869
2397,  843, 1048,  844,  993
2398,  868, 1121, 1118, 1122
2399, 1506, 1507,  127,  144
2400, 1088,  539,  538,  508
2401,  872,  989, 1055,  871
2402, 1194, 1495,  302,  322
2403, 1211, 1013, 1050, 1210
2404, 1241, 1175, 1042, 1508
2405,  989, 1056, 1058,  872
2406,  175, 1509,  183,  146
2407, 1056, 1058, 1057, 1194
2408, 1164, 1163, 1172, 1510
2409, 1166, 1460, 1139, 1170
2410, 1494,  333, 1435,  327
2411, 1166, 1171,  934, 1172
2412, 1506,  677,  952,  954
2413, 1511,  568,  537,  538
2414, 1171, 1169, 1512, 1168
2415, 1394, 1171, 1169, 1512
2416, 1341,  582,  612,  581
2417,  911,  934, 1139,  978
2418, 1448,  195,  200,  191
2419, 1166, 1168, 1167, 1170
2420, 1171,  934, 1172,  932
2421, 1404, 1513, 1440, 1431
2422, 1076, 1423, 1492, 1144
2423,  828,  807,  805,  808
2424, 1008, 1385, 1006, 1133
2425, 1006, 1017, 1012, 1493
2426,  818, 1006, 1385, 1428
2427,  888, 1017, 1020, 1018
2428, 1006, 1493, 1133, 1428
2429,  967, 1263,  922, 1253
2430, 1281,  980, 1376, 1377
2431,  966, 1430, 1281, 1282
2432, 1514, 1281,  980, 1376
2433, 1190,  286,  309,  287
2434,  385,   65,    3,  295
2435, 1281, 1376, 1514, 1430
2436,  893, 1001,  894,  892
2437, 1323,  302,  311,  288
2438,  887,  830,  914,  849
2439, 1225,  417,  447,  386
2440,  966, 1430, 1264, 1101
2441,  922,  923,  967, 1281
2442, 1273, 1335, 1515,  456
2443, 1295, 1441,  639, 1440
2444, 1516,   73,  297,  316
2445, 1130, 1113,  820, 1385
2446, 1204, 1366, 1349,  518
2447,  805, 1107, 1193, 1240
2448, 1199, 1107, 1044,  828
2449, 1272, 1333, 1366, 1240
2450, 1366, 1333, 1517, 1240
2451, 1420,  321,  342,  327
2452, 1518,  327,  352,  297
2453, 1272,  518, 1366,  487
2454, 1494,  327,  342,  333
2455, 1349, 1240, 1366, 1107
2456, 1366, 1240, 1517, 1367
2457, 1416,  308,  306,  324
2458, 1366, 1240, 1367, 1107
2459,  910, 1161,  978, 1138
2460,  858,  859,  851,  847
2461, 1516,  364,  363,   74
2462, 1155, 1138,  912, 1315
2463,  885,  808,  829, 1078
2464,  911,  976, 1099,  934
2465, 1223,  349,  345,  354
2466, 1288, 1445, 1094, 1099
2467, 1421,  173, 1405,  167
2468,  904,  912,  907, 1156
2469, 1479, 1474, 1519,  293
2470, 1002, 1230, 1437, 1438
2471, 1009, 1011,  396, 1010
2472, 1516,   74,  316,  279
2473, 1000, 1236, 1103, 1253
2474, 1317, 1458, 1394, 1169
2475,   94,  384,  294,  293
2476,  835,  810,  898,  842
2477,  384,  294,  293, 1519
2478, 1103, 1263,  967, 1253
2479,  813,  885,  878,  814
2480, 1000, 1236,  959, 1175
2481, 1164,  932, 1172, 1163
2482,  361, 1518, 1420, 1313
2483, 1218, 1301, 1520, 1472
2484, 1521, 1522,  317, 1035
2485, 1332, 1522, 1416, 1331
2486, 1210, 1013, 1433, 1211
2487,  825,  939,  899,  938
2488, 1046, 1191,  841, 1212
2489, 1523,  421,  420,  390
2490, 1209, 1062, 1134, 1015
2491, 1382,  323,  334,  326
2492, 1442, 1036,  369,  370
2493,  835,  836,  844,  841
2494, 1212,  866, 1257, 1191
2495,  287, 1195,  296,  302
2496,  866, 1031, 1032, 1214
2497, 1279, 1250,  478, 1090
2498,  845,  842,  864,  832
2499, 1180,  302,  309,  326
2500,  938, 1215, 1218, 1140
2501,  938,  936, 1524,  937
2502,  837,  898,  838,  899
2503,  938, 1525, 1215, 1140
2504, 1065, 1329, 1215, 1328
2505, 1215, 1063, 1526, 1329
2506,  356,   66,  287,   67
2507, 1215, 1527, 1218, 1140
2508, 1181,  323,  307,  310
2509, 1418,  306,  281,  331
2510,  938, 1218, 1067,  895
2511, 1032, 1040,  948, 1061
2512, 1188,  386,  416,  355
2513, 1417,  324,  306,  331
2514, 1505,   76,   75,  280
2515,  895,  951, 1142, 1218
2516, 1218, 1063, 1528, 1215
2517, 1061, 1062, 1063,  949
2518,  899,  897, 1028, 1135
2519, 1113, 1111, 1110, 1158
2520, 1490, 1276, 1390,  524
2521, 1505,  366,  365,   76
2522, 1113, 1385, 1271,  490
2523, 1026, 1220, 1222, 1403
2524,  824,  819,  823,  937
2525,  941,  824,  942, 1274
2526,  827,  941,  942,  945
2527,   78,  367, 1529,   77
2528, 1110, 1274,  823, 1159
2529, 1357, 1393, 1356,  481
2530, 1286, 1077, 1357, 1079
2531, 1077, 1079, 1082, 1392
2532, 1357, 1356, 1393, 1077
2533, 1077,  987, 1372, 1393
2534, 1083, 1392,  479,  480
2535, 1357, 1079, 1392, 1176
2536, 1183, 1335, 1530, 1515
2537, 1311, 1310, 1313,  393
2538,  866,  948, 1214, 1032
2539,  824,  942, 1274, 1110
2540, 1505, 1418,  281,  305
2541, 1211,  988, 1424, 1124
2542, 1529,   77,  281,  298
2543, 1522,  340,  308,  332
2544,   78, 1531,  368,  282
2545, 1024,  899, 1064,  950
2546, 1531,  281,  306,  298
2547, 1209, 1213, 1214, 1128
2548,  835,  841,  950,  836
2549, 1063, 1526, 1528, 1215
2550,  938, 1328, 1525, 1524
2551, 1067,  840, 1040,  948
2552,  949, 1062, 1063, 1066
2553, 1531,  306,  282,  298
2554, 1037, 1336,  929, 1105
2555, 1486,  282,  283,   79
2556, 1215,  938, 1218, 1067
2557,  930,  932,  933,  916
2558, 1164, 1394, 1510, 1172
2559, 1408,  328,  318,  317
2560, 1094, 1398, 1092, 1093
2561, 1193, 1350,  817, 1351
2562,  812,  878,  874,  814
2563, 1239, 1238, 1354, 1097
2564, 1076, 1078, 1360, 1350
2565, 1003,  858, 1179, 1147
2566, 1018, 1236, 1000,  995
2567, 1286, 1079, 1357, 1176
2568,  897, 1054,  837, 1026
2569, 1442,  284,  283,  340
2570,  834,  893,  888,  891
2571, 1010,  398,  397,  367
2572,  877,  987,  876,  994
2573,  987, 1083, 1393, 1077
2574, 1076, 1350, 1360, 1492
2575,  368,  282,   79,   78
2576, 1056, 1057, 1266, 1194
2577,  872,  993, 1057,  988
2578,  936, 1532, 1328, 1524
2579, 1533, 1174, 1167, 1173
2580, 1511, 1174,  569, 1533
2581, 1425, 1433, 1424, 1473
2582, 1457, 1137, 1139, 1317
2583, 1274,  429, 1413,  430
2584, 1167,  881,  919,  570
2585, 1167,  570,  919,  601
2586, 1166, 1169, 1139, 1171
2587,  853, 1183, 1335, 1308
2588, 1130, 1131, 1349, 1271
2589,  819,  818, 1391, 1390
2590, 1016,  336,  339,  330
2591, 1534, 1521,  373, 1409
2592,  805, 1130, 1240,  816
2593, 1111, 1158, 1183,  947
2594, 1059,  872, 1055,  871
2595,  828,  805, 1193,  808
2596,  873, 1124, 1054, 1057
2597,  837, 1026, 1054, 1030
2598, 1088,  507, 1318, 1089
2599,  371,   81,  314,   82
2600, 1088, 1318,  538,  882
2601, 1499, 1081, 1082, 1500
2602, 1149, 1081, 1088, 1090
2603, 1034,  403,  402,  372
2604, 1521, 1035,  317,  314
2605, 1535,  375,  405,  374
2606, 1088,  882,  539, 1499
2607, 1534,  315,  348,  320
2608, 1037, 1336,  500, 1039
2609,  973, 1268,  971,  444
2610, 1472, 1218, 1040, 1219
2611, 1067, 1061, 1219, 1063
2612,  375, 1535, 1536,  374
2613,  375,  285,   85,  320
2614,  970, 1537,  972, 1470
2615,  874, 1078, 1080, 1077
2616,  949,  950,  948, 1062
2617, 1022,  127, 1506, 1480
2618, 1139, 1457, 1169, 1455
2619,  907, 1246, 1156, 1370
2620,  906, 1243, 1244, 1247
2621, 1137, 1444, 1369,  912
2622,  373,   83,  372,  299
2623, 1536,  348,  285,  320
2624,  922, 1261, 1263,  921
2625, 1034,  372,  402,  371
2626, 1521,  299,  373,  372
2627, 1035,  284,  371,  370
2628, 1534,  318,  315,  299
2629,  922, 1377, 1255, 1324
2630, 1155, 1264,  910, 1161
2631, 1486,  282,  308,  283
2632, 1264, 1148, 1112, 1155
2633, 1155, 1148, 1112, 1316
2634, 1127, 1425, 1479, 1474
2635,  373,   83,  315,   84
2636, 1264,  965,  910,  966
2637,  974, 1161, 1165,  978
2638, 1231, 1146, 1162, 1101
2639, 1231, 1162, 1375, 1101
2640, 1060, 1062, 1015, 1410
2641, 1491,  330,  303,  337
2642, 1536, 1060, 1407, 1535
2643, 1060, 1070, 1535, 1536
2644,  380,  291,   91,   90
2645, 1538, 1474, 1473,  304
2646,  971, 1259,  412,  443
2647, 1407, 1410, 1536,  348
2648, 1068,  409,  408,  378
2649, 1061, 1032, 1484, 1477
2650,  970,  971, 1259, 1470
2651, 1537,  292,  291,  303
2652, 1032, 1485, 1214, 1031
2653, 1060, 1123, 1063, 1539
2654, 1260,  303,  291,  290
2655, 1061, 1123, 1060, 1477
2656, 1004, 1233, 1232, 1468
2657, 1378, 1233, 1216, 1540
2658, 1255, 1284, 1379, 1378
2659, 1541, 1255, 1284, 1379
2660, 1255, 1252, 1542, 1232
2661, 1362, 1176,  541, 1543
2662, 1496, 1288, 1362, 1460
2663, 1094, 1092, 1398, 1496
2664,  573,  572, 1362, 1177
2665, 1177,  572, 1362,  541
2666,  357,   67,  287,  296
2667, 1294, 1296, 1471, 1326
2668,  357,   67,  296,   68
2669, 1337, 1475, 1294,  981
2670, 1064, 1106, 1136, 1483
2671,  361,  321,   72,   71
2672, 1420,  321,   71,  312
2673, 1190,  357,  356,  287
2674, 1189,  387,  356,  357
2675, 1045, 1294, 1327, 1471
2676,  357,  356,  287,   67
2677, 1045, 1294, 1244, 1327
2678, 1101,  967,  966, 1376
2679, 1264, 1101,  965,  966
2680, 1266, 1435, 1384, 1403
2681,  923,  921, 1263, 1303
2682,  358,   68,  288,   69
2683, 1312, 1420, 1494, 1313
2684,  923, 1282, 1501, 1502
2685,  965,  910, 1155, 1264
2686,  963, 1165, 1280, 1164
2687, 1102, 1071, 1163, 1304
2688, 1195,  358,  357,  296
2689,  359,   69,  289,   70
2690, 1263,  923, 1102,  967
2691, 1502, 1285,  923, 1282
2692, 1317, 1139,  978, 1137
2693, 1265, 1436, 1495, 1194
2694, 1194, 1056, 1058,  989
2695, 1317, 1457, 1138, 1544
2696, 1457, 1544, 1545, 1503
2697, 1457, 1544, 1458, 1545
2698, 1546, 1455, 1458, 1457
2699, 1300, 1527, 1301,  496
2700, 1544, 1547, 1456, 1545
2701,  385,  294,  295,    3
2702, 1544, 1315, 1138, 1161
2703, 1457, 1544, 1503, 1138
2704, 1491,  303,  330,  325
2705, 1442,  370,  283,  284
2706, 1426, 1519, 1181, 1188
2707, 1457, 1444,  912, 1503
2708, 1086,  889,  410, 1259
2709, 1137, 1099, 1369, 1445
2710, 1317, 1456, 1544, 1161
2711,  376,  313,   87,   86
2712, 1317, 1169, 1457, 1458
2713, 1230, 1548, 1233, 1468
2714, 1002, 1230, 1438, 1321
2715,  300, 1014,  337,  329
2716, 1535,  406,  405,  375
2717, 1146, 1229, 1004, 1468
2718, 1145, 1437, 1462, 1446
2719,  996, 1178, 1437,  954
2720, 1230, 1233, 1549, 1466
2721, 1230, 1550, 1438, 1551
2722, 1438, 1437, 1507, 1552
2723, 1520, 1301,  496,  497
2724,  379,   90,   89,  290
2725, 1230, 1321, 1466, 1551
2726, 1482,  339,  335,  325
2727, 1088,  538, 1318,  507
2728, 1188,  295,  307,  286
2729, 1438, 1437,  954, 1507
2730, 1438, 1321, 1551, 1186
2731, 1438, 1230, 1462, 1550
2732, 1537,  303,  304,  292
2733,  893,  888,  891, 1018
2734, 1438, 1321, 1469, 1178
2735, 1321, 1469, 1178, 1184
2736, 1438, 1469, 1321, 1186
2737, 1184, 1001, 1012, 1267
2738, 1178, 1437,  954, 1438
2739, 1002, 1178, 1438, 1437
2740, 1551, 1465, 1321, 1466
2741, 1232, 1319,  995, 1252
2742, 1479,  415,  384,  385
2743,  920, 1553, 1501,  923
2744,  966, 1376, 1430, 1101
2745,  922, 1255, 1325, 1324
2746, 1520,  497, 1472, 1301
2747,   93,  301,  383,  293
2748,  355,   65,  286,   66
2749, 1519,  294,  310,  307
2750,  922, 1377,  977,  920
2751, 1241, 1104, 1262, 1365
2752, 1253, 1406, 1255, 1252
2753, 1364, 1252, 1253, 1236
2754, 1261, 1262, 1253, 1263
2755, 1103, 1263, 1262, 1198
2756,  355,   65,  385,  295
2757, 1504, 1554, 1473, 1433
2758,  956, 1252, 1253, 1255
2759,  355,  295,  286,   65
2760, 1157, 1232, 1233, 1466
2761, 1437, 1230, 1462, 1438
2762, 1146, 1179, 1447, 1148
2763, 1146, 1468, 1162, 1229
2764, 1518,  297,  321,  327
2765,  362,  361,  321,   72
2766, 1377, 1281,  920,  922
2767, 1282, 1430, 1553, 1555
2768, 1282, 1285, 1556, 1502
2769,  966, 1282, 1283, 1430
2770, 1165,  966, 1283, 1161
2771,  980, 1281,  920, 1377
2772, 1529,  281,   77,   76
2773, 1010,  366,  396,  365
2774, 1113, 1272,  457,  488
2775, 1158, 1273,  457, 1113
2776, 1373, 1427,  490,  491
2777,  460,  491, 1391, 1373
2778,  373,  299,  315,   83
2779, 1373,  823, 1427, 1391
2780, 1110,  823, 1373, 1159
2781, 1113, 1373, 1385,  490
2782, 1008,  820,  818, 1385
2783, 1520, 1219, 1472,  466
2784, 1479,  384,  415,  414
2785, 1236, 1018,  962, 1252
2786,  962, 1236,  961,  959
2787,  915,  927,  926,  929
2788, 1157, 1466, 1320, 1319
2789,  966, 1161, 1264, 1151
2790, 1557,  959, 1018,  962
2791,  962, 1557, 1277, 1018
2792, 1260,  380, 1470,  411
2793, 1007,  821, 1141,  818
2794, 1557,  524,  555, 1277
2795, 1143, 1125, 1523, 1059
2796, 1320, 1018,  995, 1319
2797, 1505,  280,  281,   76
2798, 1320, 1018, 1319, 1277
2799, 1349, 1352, 1353, 1368
2800, 1200,  975,  579, 1326
2801, 1528,  465,  434,  435
2802, 1558,  289,  311,  342
2803, 1044, 1203, 1193, 1107
2804,  548,  579, 1204,  975
2805, 1153,  476,  475,  445
2806, 1259,  442,  441,  411
2807, 1114,  688, 1115,  689
2808, 1035,  340,  314,  284
2809, 1407, 1062, 1060, 1410
2810, 1201, 1340, 1353, 1339
2811, 1029, 1482, 1210, 1016
2812, 1053, 1211, 1052,  970
2813, 1479,  414,  383,  384
2814, 1211, 1053, 1013,  970
2815, 1124, 1433, 1210, 1029
2816, 1029, 1433, 1210, 1482
2817, 1470,  412,  411,  381
2818, 1050, 1053, 1212, 1213
2819, 1289, 1345, 1226,  985
2820,  374,  320,   84,  315
2821, 1149,  880,  882, 1081
2822, 1047,  992,  994,  991
2823, 1440, 1513, 1295, 1247
2824, 1509, 1559,  176, 1547
2825, 1197, 1147,  851, 1156
2826, 1247, 1513, 1295, 1298
2827, 1247, 1246, 1150, 1156
2828,  906, 1242, 1247, 1246
2829, 1560,  494,  463,  464
2830, 1197, 1247, 1244, 1234
2831, 1195,  389,  388,  358
2832, 1022, 1506,  676,  952
2833, 1086,  410,  379,  380
2834, 1073,  879, 1497, 1173
2835, 1538,  304,  323,  310
2836, 1506,   17,   16,  677
2837, 1005, 1386, 1175,  959
2838,  888, 1006, 1017, 1012
2839, 1021, 1006,  892, 1133
2840, 1133, 1012, 1196, 1269
2841, 1131, 1133, 1352, 1488
2842, 1385,  818, 1427,  820
2843, 1131, 1349,  519, 1352
2844, 1363,  313,  300,   87
2845, 1021,  892, 1196, 1133
2846, 1007, 1276, 1020, 1019
2847, 1283, 1559, 1509, 1547
2848, 1070,  407,  376,  377
2849, 1017,  893, 1320, 1018
2850, 1363,   87,  377,  313
2851, 1091, 1094, 1099,  934
2852,  966, 1264, 1430, 1151
2853,  883,  821,  809,  982
2854, 1322,  996, 1178, 1437
2855, 1412, 1417,  945, 1182
2856, 1417,  331, 1254,  324
2857,  360,   70,  289,  312
2858,  360,  359,  289,   70
2859, 1417, 1531,  306, 1486
2860, 1417, 1416,  324, 1254
2861, 1417,  945, 1254, 1418
2862, 1417, 1418, 1254,  331
2863, 1435,  333,  343,  345
2864, 1366,  486, 1333,  487
2865, 1495,  333,  311,  322
2866, 1273, 1111, 1515, 1335
2867,  489, 1113,  488, 1271
2868, 1333,  486,  854,  455
2869, 1312, 1558, 1436, 1494
2870,  853, 1333, 1273, 1348
2871, 1333, 1517, 1240, 1348
2872, 1297,  859, 1294, 1244
2873, 1297, 1452, 1421, 1419
2874,  382,   92,  292,  301
2875, 1421, 1561,  673, 1452
2876, 1562, 1421, 1561,  673
2877, 1452,  642, 1561,  673
2878, 1452,  641, 1419,  981
2879, 1073, 1173, 1497, 1248
2880, 1073,  882, 1173, 1248
2881, 1166,  879,  881, 1173
2882,  931, 1075,  879,  932
2883, 1173,  882,  881, 1533
2884, 1022, 1506,   16,  676
2885, 1190,  309,  302,  287
2886, 1173,  882, 1511, 1248
2887, 1519,  295,  294,  307
2888, 1181,  307,  323,  326
2889, 1189,  356,  386,  355
2890, 1166,  934,  879, 1172
2891,  879, 1287,  881,  880
2892,  931, 1226, 1073, 1075
2893,  307, 1188,  286,  309
2894,  930,  932,  879,  934
2895, 1382,  323,  335,  334
2896, 1436, 1056, 1059, 1120
2897, 1563,  345,  352,  327
2898, 1434, 1518,  327, 1563
2899,  819,  821,  818, 1141
2900,  917, 1071, 1361, 1163
2901,  918, 1226,  917, 1293
2902,  362,   72,  297,   73
2903,  312,   71, 1420,  360
2904, 1564,  395,  394,  364
2905, 1192, 1226,  918, 1293
2906, 1565, 1492, 1205, 1350
2907, 1193, 1203, 1205, 1565
2908, 1425,  970,  972,  973
2909, 1534,  318,  348,  315
2910, 1539,  404,  373,  374
2911, 1566,  313,  319,  329
2912, 1052, 1258, 1053,  971
2913, 1049, 1052, 1258, 1053
2914, 1410, 1408, 1411,  338
2915, 1095, 1286, 1097, 1092
2916, 1463,  352,  305,  279
2917, 1046, 1052, 1047, 1049
2918, 1505,  280,  305,  281
2919, 1052, 1251, 1237,  973
2920, 1567,  434, 1526, 1568
2921, 1052, 1251, 1153, 1237
2922, 1522,  340,  332,  317
2923, 1481,  926, 1071, 1292
2924, 1481, 1454,  929, 1039
2925, 1135, 1254, 1220, 1498
2926, 1198, 1454,  562, 1104
2927, 1454,  531, 1039,  532
2928, 1282, 1502, 1556, 1115
2929,  562, 1104,  561, 1198
2930,  924, 1104, 1454, 1198
2931, 1329, 1409, 1066, 1063
2932,  950, 1029,  836, 1209
2933, 1409, 1066, 1063, 1407
2934, 1025,  347,  351,  354
2935, 1125,  391,  421,  390
2936, 1223,  349,  341,  331
2937, 1063, 1329, 1409, 1569
2938, 1407, 1060, 1063, 1539
2939, 1053, 1260, 1259, 1086
2940, 1053, 1212, 1570, 1450
2941, 1249, 1345, 1152, 1318
2942,  659, 1117, 1571,  900
2943, 1275, 1274, 1413,  430
2944, 1046, 1212, 1050, 1053
2945, 1053, 1259,  971, 1258
2946,  936, 1332, 1328, 1532
2947, 1215, 1140, 1560, 1527
2948, 1383,  334,  322,  326
2949,  938,  937, 1524, 1140
2950,  938, 1215, 1525, 1328
2951,  866, 1213, 1429, 1214
2952, 1483,  346,  339,  353
2953, 1460,  602,  572,  633
2954, 1209, 1013, 1128, 1015
2955, 1051,  346,  347,  334
2956, 1328, 1525, 1532, 1567
2957, 1213, 1132, 1128, 1087
2958, 1050, 1053, 1213, 1013
2959, 1450, 1257,  472,  473
2960,  841, 1209, 1213, 1214
2961,  478, 1084, 1082,  448
2962, 1086, 1213, 1053, 1013
2963, 1011,  427,  426,  396
2964, 1213, 1087, 1128, 1086
2965, 1180,  326,  322,  302
2966, 1006, 1428, 1133, 1385
2967,  892, 1133, 1012, 1196
2968, 1018, 1557, 1277, 1020
2969, 1003,  909,  999,  958
2970, 1310,  393,  423,  392
2971, 1435,  345,  327,  333
2972,  452,  483, 1453, 1388
2973,  514, 1423, 1144, 1492
2974, 1423, 1565, 1517, 1351
2975, 1410,  319,  348,  338
2976, 1536,  376,  375,  285
2977, 1423,  515, 1565, 1492
2978, 1566,  319,  336,  329
2979, 1408,  338,  318,  328
2980, 1407, 1409, 1408, 1534
2981, 1423, 1517, 1453, 1351
2982, 1014,  329,  336,  337
2983,  875, 1388, 1423, 1144
2984, 1312,  360, 1420, 1313
2985, 1312, 1120, 1125, 1572
2986, 1365,  528, 1299, 1508
2987, 1554,  325,  330,  339
2988,  285,  376,  313, 1536
2989, 1312, 1310, 1120, 1572
2990, 1312, 1494, 1436, 1434
2991, 1312, 1558, 1342, 1436
2992, 1312,  360, 1313,  391
2993, 1342, 1312, 1125,  391
2994,  415, 1479,  414, 1573
2995,  939,  936, 1332, 1328
2996,  822,  940,  810,  809
2997, 1331,  324,  344,  332
2998, 1484,  468,  467,  437
2999, 1141, 1574, 1490, 1390
3000, 1006, 1276, 1019, 1428
3001, 1386, 1490, 1575, 1489
3002, 1563,  345,  349,  352
3003,  899, 1135,  827,  897
3004, 1516, 1518, 1307, 1563
3005, 1530,  395,  425,  394
3006, 1152,  476,  506,  475
3007, 1426, 1479, 1188, 1225
3008,  823,  937, 1391, 1275
3009, 1016,  336,  353,  339
3010, 1560,  495,  494,  464
3011, 1373,  823, 1391, 1274
3012,  925, 1104, 1241, 1105
3013, 1567,  403,  433,  402
3014, 1106, 1136,  344, 1331
3015, 1365, 1508,  529,  528
3016, 1200, 1202, 1044,  975
3017,  896,  897,  827,  944
3018, 1472,  497,  466,  467
3019,  351,  341, 1498,  354
3020,  804,  817,  816,  808
3021, 1105, 1365,  529,  530
3022, 1131,  521, 1488,  520
3023,  940,  937,  938, 1140
3024, 1113,  820, 1385, 1373
3025,  946,  942,  947, 1160
3026, 1188,  416,  385,  355
3027, 1243, 1245, 1224, 1478
3028, 1519,  310,  294,  293
3029,  383,   94,   93,  293
3030,  384,  385,    3,  294
3031,  946,  942, 1160, 1010
3032, 1260,  970, 1259, 1470
3033, 1519,  384,  294,  385
3034,  946, 1505, 1463, 1418
3035, 1250,  446,  477,  476
3036, 1412,  945,  946,  942
3037, 1538, 1519,  293,  310
3038, 1412,  946,  945, 1418
3039,  875, 1372, 1388, 1144
3040, 1381, 1576,  946, 1463
3041,  944,  946, 1221,  945
3042, 1024, 1029, 1134, 1483
3043,  358,  288,   68,  296
3044,  302, 1195,  296,  288
3045, 1494,  333,  342,  311
3046,  356,  286, 1188, 1190
3047, 1057, 1026, 1051, 1030
3048, 1026, 1025, 1028, 1220
3049,  360,   71,   70,  312
3050, 1099, 1139, 1288, 1445
3051, 1323,   69,  288,  289
3052, 1323,  311,  289,  288
3053, 1495,  322,  311,  302
3054, 1058, 1194, 1180, 1383
3055, 1384,  343,  333,  322
3056, 1310, 1334,  423,  424
3057, 1403, 1222, 1026, 1266
3058, 1499, 1079, 1543, 1392
3059, 1076, 1078, 1077, 1360
3060, 1222,  897, 1026, 1119
3061,  358,  357,  296,   68
3062, 1558,  312,  289,  342
3063,  888,  892, 1021, 1006
3064, 1523,  419,  388,  389
3065,  883,  887,  828, 1021
3066,  903,  853, 1111,  816
3067, 1558,  360,  359,  289
3068, 1074, 1287, 1080,  935
3069, 1518,  363,  362,  297
3070, 1195, 1194, 1495,  302
3071, 1342,  389,  358,  359
3072, 1342,  390,  389,  359
3073, 1273, 1130, 1111,  816
3074,  931,  916,  918, 1075
3075, 1003,  858,  909,  849
3076, 1403,  354,  345,  343
3077, 1313,  393,  392,  362
3078, 1209, 1015, 1134, 1016
3079, 1564,  364,  394,  363
3080,  988,  989,  990, 1058
3081, 1179, 1148, 1451, 1447
3082, 1516,  352,  316,  297
3083,  863,  866, 1192,  867
3084,  876, 1077,  987,  871
3085, 1516,   73,  316,   74
3086,  363,  362,  297,   73
3087, 1469,  615, 1186,  646
3088, 1463,  279, 1516,  352
3089, 1576,  349,  305,  352
3090,  987, 1279,  991,  990
3091,  876,  991, 1084, 1081
3092, 1279,  987, 1187,  990
3093, 1222,  345, 1563, 1435
3094, 1530, 1515, 1335,  425
3095, 1309,  393,  362,  363
3096,  364,   75,   74,  279
3097, 1516, 1564,  363,  364
3098, 1047, 1081, 1149, 1090
3099, 1529, 1010,  366,  367
3100,  483, 1453, 1388, 1423
3101,  819, 1391,  937, 1389
3102, 1387,  453,  452,  422
3103, 1047, 1089, 1153, 1250
3104,  991,  990, 1279, 1250
3105, 1334,  853, 1308, 1310
3106, 1306,  853, 1120, 1310
3107,  853,  816, 1121, 1348
3108, 1529,  367,  366,   77
3109, 1113, 1373,  459, 1159
3110, 1486,  308,  282,  306
3111, 1381, 1307, 1563, 1009
3112, 1442,  308,  340,  283
3113, 1193, 1351, 1517, 1565
3114,  369,   80,   79,  283
3115,  368,  367, 1529,   78
3116, 1274, 1391,  460,  461
3117, 1381, 1222, 1221, 1563
3118, 1183, 1530, 1308, 1307
3119, 1183, 1308, 1530, 1335
3120, 1183, 1011,  947, 1158
3121, 1111, 1515, 1183, 1158
3122, 1260, 1086,  290,  380
3123,  370,   80,  283,  284
3124, 1260,  970, 1537, 1491
3125,  282,   79, 1486,  368
3126, 1411, 1408,  328,  338
3127, 1577,  461,  430,  431
3128, 1260, 1013, 1491, 1129
3129, 1260,  303, 1537,  291
3130, 1532,  431,  400,  401
3131,  370,  369,  283,   80
3132, 1007, 1019, 1006, 1276
3133, 1035,  317,  314,  340
3134, 1260,  290, 1491,  303
3135,  371,   81,  370,  284
3136, 1260, 1129,  290, 1086
3137, 1036,  401,  371,  402
3138, 1521,  299,  314,  317
3139,  372,   82,  299,   83
3140, 1521,  318,  299,  317
3141,  917, 1071, 1293, 1361
3142, 1411,  350,  338,  328
3143, 1071,  926, 1293, 1292
3144, 1071, 1292,  565,  564
3145, 1522,  332, 1330,  317
3146,  372,  371,  314,   82
3147, 1071, 1359, 1163, 1304
3148, 1450, 1257,  473, 1290
3149,  374,   85,   84,  320
3150,  933,  916,  932, 1163
3151, 1534,  374,  373,  315
3152, 1477,  407,  437,  406
3153, 1409,  404,  403,  373
3154,  917, 1075, 1578, 1226
3155, 1330,  332, 1522, 1331
3156, 1558,  342, 1420,  312
3157, 1558, 1494,  311, 1495
3158,  375,   86,   85,  285
3159,  374,  373,  315,   84
3160, 1123,  406, 1477,  437
3161, 1536,  285,  348,  319
3162, 1536,  319,  313,  285
3163, 1558, 1494,  342,  311
3164, 1558,  312, 1420,  360
3165, 1558, 1342,  359,  360
3166,  375,  374,  320,   85
3167, 1558,  359, 1342, 1323
3168,  877,  991,  994,  992
3169,  991, 1084, 1090, 1279
3170, 1111, 1183,  944,  947
3171,  376,  375,  285,   86
3172, 1363,  300,  313,  329
3173, 1363,  300,   88,   87
3174, 1566, 1363, 1070,  313
3175,  987,  989, 1396, 1187
3176,  377,   87,  376,  313
3177, 1085,   88,  300,   89
3178, 1068,  408,  377,  378
3179, 1047, 1089, 1149, 1049
3180, 1085,  300,  290,   89
3181, 1387, 1059,  855, 1125
3182, 1014, 1363,  300, 1129
3183, 1059,  855, 1125, 1120
3184, 1014,  336,  330,  337
3185,   88, 1363, 1085,  300
3186, 1085,  290, 1129, 1086
3187, 1258,  474, 1344, 1290
3188, 1014, 1128, 1015, 1363
3189,  985, 1290, 1344,  505
3190, 1118, 1435, 1122, 1434
3191, 1118, 1312, 1436, 1434
3192, 1473,  303,  325,  304
3193, 1120, 1056,  868, 1118
3194, 1295, 1244, 1294, 1441
3195,  853,  856,  855, 1120
3196,  381,  292,   92,   91
3197, 1245,  607, 1478,  606
3198,  380,  379,  290,   90
3199, 1086,  411,  410,  380
3200,  853, 1120,  869, 1121
3201,  903,  853, 1121, 1122
3202, 1474,  301,  292,  304
3203, 1015, 1363, 1566, 1014
3204,  382,   93,   92,  301
3205,  381,  380,  291,   91
3206, 1141, 1390, 1490, 1276
3207, 1007, 1141, 1490, 1276
3208,  982, 1386, 1141, 1142
3209,  382,  381,  292,   92
3210, 1208, 1262, 1261,  591
3211, 1538,  304,  310,  293
3212, 1474,  383,  382,  301
3213, 1020,  959, 1557, 1489
3214, 1020, 1490, 1557,  524
3215, 1386,  959, 1489, 1175
3216,  383,   93,  382,  301
3217, 1365,  559, 1208, 1364
3218, 1386, 1575, 1142, 1175
3219, 1479, 1573,  415, 1225
3220,  897, 1135, 1220, 1028
3221, 1127,  413,  382,  383
3222,  384,  383,  293,   94
3223, 1024, 1483, 1064, 1136
3224, 1064, 1483, 1134, 1411
3225, 1433, 1030, 1029, 1124
3226, 1134, 1062,  950, 1064
3227,  990, 1187, 1279, 1225
3228, 1187, 1396,  417,  418
3229, 1573,  415,  445,  414
3230, 1064, 1134, 1062, 1411
3231, 1579, 1580,  694, 1581
3232, 1354, 1239,  544, 1355
3233, 1286, 1097, 1360, 1078
3234, 1356, 1286, 1077, 1357
3235, 1350, 1360, 1492, 1238
3236, 1354,  543, 1177,  512
3237, 1051,  343,  334,  347
3238, 1582,  418,  387,  388
3239, 1079, 1287, 1499, 1543
3240, 1189,  387,  386,  356
3241, 1356,  482, 1372, 1144
3242, 1195,  388,  357,  358
3243, 1383,  343,  322,  334
3244, 1310, 1312,  391, 1572
3245, 1245,  576, 1224,  607
3246, 1354,  512, 1356,  513
3247, 1097, 1360, 1078, 1350
3248, 1360, 1492, 1238, 1355
3249,  387, 1195,  388,  357
3250, 1519,  385,  294,  295
3251, 1083,  479,  448,  449
3252, 1080, 1079,  880, 1081
3253, 1311,  394,  424,  393
3254, 1564, 1009, 1307, 1154
3255, 1210, 1482, 1433, 1554
3256, 1097, 1350, 1238, 1360
3257, 1558, 1323,  311,  289
3258, 1313,  362,  392,  361
3259, 1492, 1205, 1350, 1238
3260,  693,  147,  139, 1579
3261, 1091, 1096, 1098, 1239
3262, 1273, 1515, 1111, 1158
3263, 1130, 1131, 1108, 1349
3264, 1313,  392,  391,  361
3265,  355,  286, 1188,  356
3266, 1310,  423,  422,  392
3267, 1055, 1265, 1059, 1523
3268, 1135,  944, 1220,  945
3269, 1434, 1435, 1563,  327
3270, 1449, 1245,  576, 1224
3271, 1113,  488, 1271, 1272
3272, 1143,  452,  451,  421
3273,  838,  837,  897, 1054
3274,  856,  423, 1334,  454
3275, 1309,  394,  393,  363
3276, 1199, 1200, 1353, 1196
3277,  983, 1044,  984,  829
3278,  365, 1463,   75,  364
3279, 1309,  363, 1564,  394
3280, 1279, 1187,  417, 1225
3281, 1009,  365, 1010,  396
3282, 1334,  454,  423,  424
3283, 1009,  396,  395,  365
3284, 1240, 1348, 1517, 1351
3285, 1024, 1028, 1025, 1136
3286, 1223,  354,  341,  349
3287, 1024, 1027, 1029, 1483
3288, 1576,  349,  331,  305
3289, 1026, 1030, 1027, 1051
3290, 1134, 1062, 1411, 1016
3291,  341, 1331,  324,  344
3292, 1309, 1518, 1307, 1564
3293,  936,  937, 1577, 1524
3294,  820,  818, 1427,  823
3295,  937, 1140, 1574, 1524
3296, 1110, 1158,  947, 1159
3297,  818, 1428, 1385, 1427
3298, 1300, 1489, 1175, 1575
3299, 1414, 1577,  430,  431
3300,  937, 1140, 1389, 1574
3301, 1505, 1463,  305,  280
3302,  937,  941, 1577, 1275
3303, 1010,  397,  396,  366
3304, 1579,  692, 1581,  693
3305,  930,  978,  974,  932
3306, 1412, 1531, 1486, 1432
3307,  494,  493, 1490, 1574
3308, 1414,  430,  399,  400
3309, 1036,  370,  400,  369
3310,  824,  941, 1275, 1274
3311, 1037, 1039,  500, 1038
3312, 1416,  324,  332,  308
3313, 1431, 1242, 1513, 1440
3314, 1222, 1403,  345, 1435
3315, 1136,  344,  351,  350
3316,  940, 1141,  819, 1140
3317, 1025,  354, 1403,  347
3318, 1413,  399,  429,  398
3319, 1007, 1276,  818, 1141
3320,  818, 1390, 1427, 1391
3321, 1415,  400,  399,  369
3322, 1579, 1546,  150,  139
3323, 1579, 1583, 1581,  692
3324,  819, 1389,  937, 1140
3325, 1265,  389, 1523, 1195
3326, 1413,  430,  429,  399
3327, 1056, 1266, 1057, 1054
3328, 1582, 1055, 1265,  989
3329, 1265, 1194, 1495, 1195
3330,  989, 1055, 1265, 1194
3331, 1036,  371,  401,  370
3332, 1036,  401,  400,  370
3333, 1342, 1059, 1265, 1125
3334, 1335,  456,  455,  425
3335, 1415,  399,  368,  369
3336, 1265, 1059, 1523, 1125
3337, 1458, 1579, 1583, 1581
3338, 1569, 1528, 1526,  435
3339, 1123,  406,  436,  405
3340, 1056, 1265, 1436, 1059
3341, 1252, 1236,  961,  962
3342, 1106,  350, 1136, 1483
3343, 1490, 1390,  493,  524
3344,  852, 1244, 1045, 1294
3345,  866, 1214, 1429, 1031
3346, 1106,  344, 1136,  350
3347,  904,  909, 1147,  851
3348, 1539,  405,  404,  374
3349, 1490,  524,  493,  494
3350, 1141, 1390, 1389, 1574
3351, 1252,  962,  961, 1542
3352, 1521, 1534,  299,  318
3353, 1560, 1575,  494,  495
3354, 1300,  496, 1301,  527
3355,  959, 1557,  960,  962
3356,  931, 1075,  918, 1226
3357, 1535,  407,  406,  376
3358, 1535,  406,  375,  376
3359, 1536,  374,  320,  375
3360, 1569,  435,  404,  405
3361, 1020,  959, 1018, 1557
3362, 1575, 1489, 1175, 1386
3363, 1390,  493,  524,  523
3364, 1215, 1560, 1140, 1525
3365, 1247, 1298, 1150, 1513
3366, 1182, 1332, 1415, 1416
3367, 1376, 1377, 1228, 1374
3368, 1569,  404, 1526, 1409
3369, 1377, 1231, 1255, 1374
3370, 1374, 1232, 1255, 1378
3371, 1363,  377,   87,   88
3372, 1410,  336,  319,  338
3373, 1584,  439,  438,  408
3374, 1070,  408,  407,  377
3375, 1377,  967, 1281,  922
3376, 1085, 1086,  379,  290
3377, 1132,  408,  409,  439
3378, 1086,  380,  379,  290
3379, 1087,  409,  378,  379
3380, 1129, 1014,  337,  300
3381, 1376, 1228,  980, 1514
3382, 1376, 1375, 1514, 1126
3383, 1376, 1375, 1126, 1101
3384,  858,  857, 1179, 1147
3385, 1426, 1519, 1538, 1181
3386, 1410, 1536, 1060, 1407
3387, 1366, 1517, 1333,  486
3388,  906, 1247, 1242, 1243
3389, 1197,  857,  851, 1147
3390, 1331, 1106, 1330,  332
3391,  857,  969, 1147,  968
3392, 1584, 1070,  408,  407
3393,  841, 1213, 1050, 1212
3394, 1441, 1327, 1243, 1244
3395, 1063, 1219, 1569, 1123
3396,  862, 1346,  859, 1347
3397, 1330, 1522, 1332, 1331
3398, 1346, 1235, 1347, 1585
3399, 1346, 1585, 1347,  996
3400, 1513, 1150,  168,  179
3401, 1236,  995, 1018, 1252
3402, 1068, 1070, 1363,  377
3403, 1402, 1246, 1513, 1242
3404, 1371, 1401, 1100, 1402
3405, 1482,  346,  335,  339
3406, 1242, 1402, 1431, 1513
3407,  885,  829, 1097, 1078
3408, 1137, 1444,  912, 1457
3409, 1156, 1247,  906, 1197
3410, 1242, 1478, 1402, 1397
3411, 1519, 1188,  307, 1181
3412, 1089,  476, 1250,  477
3413, 1247, 1246, 1242, 1513
3414, 1246, 1150, 1156, 1370
3415,  972,  413,  412,  382
3416, 1191, 1212, 1053, 1450
3417, 1247, 1150, 1246, 1513
3418, 1504,  323,  304,  325
3419,  906, 1246, 1098, 1242
3420, 1178,  953,  861, 1422
3421, 1479,  416,  415,  385
3422,  549, 1204,  580, 1353
3423, 1250,  446,  476,  445
3424, 1237,  414,  445,  444
3425, 1297, 1294,  859, 1475
3426,  832,  915,  918,  916
3427, 1049, 1258, 1268, 1344
3428, 1515,  456,  425,  426
3429, 1278,  419,  449,  418
3430, 1267, 1178, 1422, 1184
3431,  970, 1537, 1491, 1473
3432, 1558,  360,  289,  312
3433, 1187,  417,  386,  387
3434,  854, 1453,  484, 1517
3435,  853, 1335, 1333, 1334
3436, 1333, 1348,  854, 1517
3437, 1298,  968,  179,  173
3438, 1279,  478,  447,  417
3439, 1387,  452,  421,  422
3440, 1079,  880, 1081, 1499
3441, 1329,  939, 1330, 1332
3442, 1384,  322, 1383,  343
3443, 1351, 1517, 1453, 1348
3444, 1187,  418,  417,  387
3445, 1310,  392,  422,  391
3446, 1523,  420,  389,  390
3447,  995, 1018,  891, 1000
3448, 1011,  426,  395,  396
3449,  863,  867, 1192,  926
3450, 1072, 1226, 1289, 1249
3451, 1403,  347,  354,  343
3452,  863,  865,  867,  927
3453, 1582,  419,  418,  388
3454, 1481,  929,  867, 1039
3455, 1342,  390,  359,  360
3456, 1038,  927,  867,  865
3457, 1276,  524,  555,  554
3458, 1572,  855,  856, 1120
3459, 1404,  157, 1298, 1513
3460, 1404, 1405,  158,  670
3461, 1523,  420,  419,  389
3462, 1143,  451,  420,  421
3463, 1159,  428,  458,  427
3464, 1404, 1295, 1298, 1405
3465, 1404,  669, 1440,  670
3466, 1404,  669, 1431, 1440
3467, 1330,  328, 1106, 1408
3468, 1008,  818,  821, 1006
3469, 1369, 1455, 1445, 1399
3470, 1313,  362,  361, 1518
3471, 1377, 1379, 1255,  979
3472, 1490,  494, 1574, 1575
3473, 1396,  448,  417,  418
3474, 1374, 1378, 1379, 1380
3475,  856,  453,  422,  423
3476, 1231, 1376, 1101, 1375
3477, 1091, 1097,  984, 1096
3478, 1335,  455,  424,  425
3479, 1420,  361,   71,  321
3480, 1374, 1468, 1231, 1232
3481,  922, 1377, 1324,  977
3482, 1310,  424,  423,  393
3483, 1281,  922,  923,  920
3484, 1281, 1553, 1430, 1514
3485, 1105, 1343,  529, 1508
3486, 1336, 1454,  562,  531
3487,  499, 1336, 1105,  530
3488, 1336, 1039, 1454,  531
3489, 1037,  928,  929,  927
3490, 1158,  457,  426,  427
3491, 1027,  351,  346,  350
3492, 1530,  426,  425,  395
3493, 1160,  397,  427,  396
3494,  937, 1275, 1577, 1389
3495, 1244, 1327, 1243, 1045
3496, 1160,  428,  427,  397
3497, 1452,  642, 1586, 1561
3498, 1432, 1227,  398, 1413
3499,   71, 1420,  360,  361
3500,  928, 1105, 1042, 1343
3501, 1037,  928, 1343, 1105
3502, 1241,  986, 1042, 1175
3503,  927, 1038, 1039, 1037
3504, 1527,  495,  464,  465
3505,  846,  866,  839,  841
3506, 1075, 1163, 1578, 1172
3507,  964, 1102,  924,  916
3508, 1159,  459,  458,  428
3509, 1524, 1577,  431,  462
3510, 1262, 1253, 1263, 1103
3511, 1102, 1071, 1304, 1305
3512, 1420, 1494, 1313, 1518
3513, 1302, 1358, 1285, 1587
3514, 1163, 1285, 1358, 1395
3515, 1414,  400,  431,  430
3516, 1140, 1574, 1560, 1575
3517, 1391,  491,  460,  461
3518, 1171, 1139,  978, 1317
3519, 1165, 1394, 1456, 1285
3520, 1567,  432,  401,  402
3521,  917, 1075, 1163, 1578
3522, 1442, 1522, 1332, 1036
3523, 1580, 1400,  664, 1459
3524, 1568,  464,  433,  434
3525, 1306,  853, 1118, 1120
3526, 1308, 1309, 1307, 1530
3527, 1532,  432,  431,  401
3528, 1381, 1183, 1011,  947
3529, 1106,  344,  328,  332
3530, 1203,  548,  547,  517
3531, 1266, 1122, 1435, 1222
3532,  194, 1514, 1380,  184
3533, 1004, 1231, 1468, 1232
3534, 1567,  433,  432,  402
3535, 1374, 1375, 1231, 1162
3536, 1375, 1112, 1101, 1162
3537, 1567,  434,  433,  403
3538, 1376,  967, 1281, 1377
3539, 1376, 1430, 1101, 1126
3540, 1588,  154, 1552,  129
3541, 1588, 1552, 1462, 1550
3542, 1002, 1437, 1322, 1178
3543, 1230, 1588, 1548, 1462
3544, 1444,  181, 1314, 1503
3545, 1526,  435,  434,  404
3546, 1485,  439,  470,  469
3547, 1444,  912, 1314, 1589
3548, 1411,  338,  350,  353
3549, 1483,  353,  350,  346
3550, 1113,  459,  489,  458
3551, 1444, 1314,  180, 1589
3552, 1444,  172, 1370,  180
3553, 1350, 1351, 1565, 1492
3554, 1219,  466,  435,  436
3555, 1444, 1503,  169,  181
3556, 1562, 1023,  674,  997
3557, 1562,  162,   14,  125
3558, 1569,  436,  435,  405
3559, 1562, 1421,  143,  198
3560, 1476, 1562, 1421, 1561
3561,  867, 1033, 1256,  502
3562, 1394, 1456,  901, 1590
3563, 1299,  527, 1301,  528
3564, 1343, 1508,  497,  498
3565, 1043,  554, 1019,  555
3566, 1139, 1461, 1169, 1170
3567, 1038,  500,  469,  470
3568,  974,  978, 1164,  932
3569, 1577,  462,  461,  431
3570, 1343,  498, 1041,  499
3571, 1137, 1455, 1139, 1445
3572,  904,  905,  911,  914
3573, 1353,  549, 1368,  550
3574, 1139, 1169, 1317, 1171
3575,  994, 1048,  993,  992
3576, 1169, 1458, 1590, 1591
3577, 1016,  353,  336,  338
3578, 1584,  438,  407,  408
3579, 1378, 1468, 1548, 1380
3580, 1549, 1548, 1540, 1233
3581, 1473, 1491,  325,  303
3582, 1526, 1409,  404,  403
3583, 1259,  412,  442,  411
3584, 1218, 1219, 1520, 1528
3585, 1592, 1549, 1548, 1540
3586, 1527,  464, 1568,  465
3587, 1230, 1548, 1588, 1549
3588, 1188,  286,  355,  295
3589, 1230, 1468, 1229, 1548
3590, 1141, 1574, 1140, 1575
3591,  971,  413,  443,  412
3592, 1558, 1312,  360, 1420
3593, 1558, 1495, 1436, 1494
3594, 1374, 1380, 1375, 1162
3595, 1378, 1233, 1548, 1468
3596, 1593,  567,  597,  566
3597, 1282, 1556, 1285, 1117
3598, 1282, 1116, 1115, 1117
3599, 1153,  475,  444,  445
3600, 1282, 1285, 1283, 1117
3601, 1283, 1509, 1116, 1547
3602,  966, 1151, 1283, 1161
3603, 1259,  443,  442,  412
3604, 1558, 1420,  342, 1494
3605, 1237,  414,  444,  413
3606, 1225,  416,  447,  446
3607, 1283, 1559, 1161, 1151
3608, 1257,  503,  472,  473
3609, 1420, 1313,  360,  361
3610, 1165, 1456, 1317, 1161
3611, 1544, 1161, 1283, 1559
3612, 1230, 1551, 1466, 1550
3613,  971,  444,  443,  413
3614, 1152,  506,  476,  507
3615, 1504,  325,  335,  323
3616, 1462, 1438, 1552, 1437
3617, 1438,  954, 1550, 1552
3618, 1550, 1438, 1552, 1462
3619, 1322, 1346,  996, 1585
3620, 1573,  446,  445,  415
3621, 1437,  152, 1446, 1480
3622, 1437, 1462, 1446,  152
3623, 1230, 1588, 1550, 1549
3624, 1058, 1195, 1180, 1194
3625, 1342, 1558, 1312,  360
3626, 1420,  327, 1518,  321
3627, 1089,  508,  507,  477
3628, 1322, 1585,  996, 1480
3629, 1537, 1491, 1473,  303
3630, 1250,  477,  446,  447
3631, 1366,  517,  486,  487
3632,  857,  969,  968,  191
3633, 1234, 1298,  173,  968
3634, 1279,  448,  478,  417
3635, 1113,  488,  457,  458
3636, 1574,  493,  462,  463
3637, 1464,  420,  450,  419
3638, 1327, 1294, 1244, 1441
3639,  851,  857,  858, 1147
3640, 1396,  449,  448,  418
3641, 1297, 1244, 1294, 1295
3642, 1107, 1044,  828, 1193
3643, 1297, 1296, 1294,  981
3644, 1146, 1109, 1101, 1148
3645, 1242, 1513, 1440, 1247
3646, 1197, 1156, 1150,  968
3647, 1278,  450,  449,  419
3648, 1297, 1294, 1475,  981
3649, 1255, 1541,  979, 1379
3650, 1472,  467,  498,  497
3651, 1232, 1255, 1284, 1542
3652, 1464,  451,  450,  420
3653, 1159,  459,  428,  429
3654, 1272,  487, 1333,  456
3655, 1232, 1252, 1542, 1594
3656, 1354, 1355, 1360, 1238
3657,  943,  826,  944, 1111
3658, 1177, 1092, 1176, 1362
3659, 1144,  482,  483,  513
3660, 1371, 1397, 1242, 1402
3661, 1388,  483,  482,  452
3662,  573, 1362, 1496, 1092
3663, 1239,  575, 1449, 1245
3664,  856,  454,  453,  423
3665, 1239, 1093,  574,  575
3666, 1520,  496,  465,  466
3667, 1362, 1176, 1288, 1094
3668, 1239,  544, 1355, 1449
3669, 1264, 1161, 1315, 1151
3670, 1334,  455,  454,  424
3671, 1389,  462,  492,  461
3672, 1027,  351,  347,  346
3673, 1158,  427,  458,  457
3674, 1031,  439, 1132,  440
3675, 1430, 1151, 1555, 1509
3676, 1424, 1538, 1473, 1504
3677, 1018, 1319,  962, 1252
3678, 1319,  962, 1252, 1594
3679, 1515,  457,  456,  426
3680, 1004, 1232,  956, 1231
3681, 1311, 1334, 1310,  424
3682, 1162,  190,  178,  174
3683, 1382,  335, 1504, 1482
3684, 1004, 1468, 1231, 1146
3685, 1274,  461,  460,  430
3686,  922, 1255, 1377,  967
3687,  960,  527,  558,  557
3688, 1401,  172, 1443,  153
3689, 1320, 1467, 1466, 1465
3690,  995, 1319, 1018, 1252
3691, 1010,  367,  397,  366
3692, 1216, 1542,  619, 1594
3693, 1272,  488,  518,  487
3694, 1236, 1299, 1364,  960
3695, 1525, 1524,  432,  463
3696,  893, 1017, 1001, 1012
3697, 1401, 1595,  148,  155
3698,  940, 1141, 1140, 1142
3699, 1159,  429,  460,  459
3700, 1096,  906, 1243,  852
3701, 1193, 1350, 1351, 1565
3702, 1498, 1254, 1223,  341
3703, 1449,  975,  546, 1205
3704,  970, 1013, 1473, 1491
3705,  975, 1205,  547,  546
3706,  847,  848, 1202,  852
3707, 1524,  463,  462,  432
3708, 1401, 1370,  172,  168
3709,  836,  841, 1209, 1050
3710, 1427,  491,  522,  521
3711, 1511, 1497,  568, 1174
3712, 1244, 1243, 1441, 1295
3713, 1249, 1345, 1248, 1226
3714, 1525,  464,  463,  433
3715, 1369, 1400, 1455, 1399
3716, 1299,  528,  558,  527
3717, 1525,  433,  463,  432
3718, 1345, 1318, 1248,  537
3719, 1289, 1249, 1345, 1344
3720, 1371, 1397, 1100, 1399
3721, 1568,  465,  464,  434
3722, 1033,  471,  501,  470
3723, 1038,  499,  468,  469
3724, 1345, 1248,  536,  537
3725, 1131,  520, 1271,  521
3726,  382, 1127, 1474,  972
3727, 1345, 1578,  985,  536
3728, 1528,  466,  465,  435
3729, 1345, 1578, 1226,  985
3730, 1584, 1214, 1477, 1485
3731, 1192,  918,  926, 1293
3732, 1570, 1213, 1053,  889
3733, 1485,  439,  469,  438
3734, 1257, 1192, 1256, 1291
3735, 1090, 1088, 1500, 1081
3736, 1484,  438,  468,  437
3737,  527,  526, 1489, 1300
3738, 1149, 1088, 1318, 1089
3739, 1318,  882, 1248, 1511
3740, 1249, 1345, 1318, 1248
3741, 1345, 1318,  506, 1152
3742, 1249, 1318, 1152, 1089
3743, 1031,  470,  439,  440
3744, 1588, 1592,  680, 1549
3745, 1499,  570,  540,  571
3746, 1318,  537, 1511, 1248
3747,  468, 1485,  469,  438
3748, 1345, 1318,  537,  506
3749, 1592, 1596, 1548,  163
3750, 1544, 1161, 1559, 1315
3751, 1592, 1548,  186,  163
3752, 1536, 1070,  376,  313
3753,  879,  935,  934, 1287
3754, 1137, 1457, 1455, 1443
3755, 1031,  471,  470,  440
3756, 1166,  879,  934, 1287
3757, 1497,  567, 1248,  568
3758, 1429,  441,  471,  440
3759, 1258,  443,  473,  442
3760, 1336,  561,  530,  531
3761, 1317, 1544, 1138, 1161
3762, 1450,  442,  472,  441
3763, 1137, 1445, 1369, 1455
3764,  859, 1347, 1476, 1475
3765,  911, 1137, 1099,  907
3766,  962,  587,  557,  588
3767, 1429,  472,  471,  441
3768, 1250,  445, 1573,  446
3769, 1479, 1474,  383, 1127
3770, 1147, 1589,  908, 1156
3771, 1290,  504,  473,  474
3772, 1089, 1152,  476,  507
3773,  969, 1589, 1451, 1147
3774, 1450,  473,  472,  442
3775, 1479, 1225,  415,  416
3776, 1268,  474,  443,  444
3777, 1082,  509,  540, 1500
3778, 1147,  969, 1156,  968
3779,  946, 1160,  947, 1011
3780, 1258,  474,  473,  443
3781,  862,  996, 1347,  861
3782, 1003, 1179, 1146, 1148
3783, 1268,  475,  474,  444
3784, 1188,  295,  355,  385
3785, 1589, 1150,  189,  168
3786, 1015, 1069, 1070, 1068
3787, 1344,  505,  474,  475
3788, 1267, 1196, 1201,  850
3789, 1479,  384,  383,  293
3790, 1267, 1270, 1422, 1269
3791, 1012, 1270, 1043, 1184
3792, 1250,  477,  447,  478
3793, 1499,  882, 1533,  881
3794, 1320, 1321, 1185, 1465
3795, 1272,  487,  456,  457
3796, 1399,  635, 1100,  634
3797, 1090,  478,  508,  477
3798,   21,  681,  130,  160
3799, 1012, 1270, 1493, 1043
3800, 1267,  861, 1201, 1341
3801,  893, 1320, 1018,  995
3802,  852, 1243, 1045, 1244
3803, 1259,  441,  410,  411
3804,  854,  486,  485,  455
3805, 1592, 1549,  681,  680
3806, 1596,  681,  160, 1592
3807, 1418, 1531,  281,  306
3808, 1113,  490, 1271,  489
3809, 1388,  452,  482,  451
3810, 1373,  460,  490,  459
3811, 1147, 1156,  969, 1589
3812, 1453,  453,  483,  452
3813, 1033,  471,  502,  501
3814, 1155,  910,  908,  912
3815,  923, 1553, 1501, 1282
3816,  930,  935,  976,  934
3817, 1344, 1290,  474,  505
3818,  825,  819,  824,  937
3819, 1328, 1036, 1567, 1532
3820, 1418, 1576,  331,  305
3821, 1418, 1529, 1531, 1432
3822, 1432, 1227, 1412, 1010
3823, 1155,  912, 1314, 1315
3824,  908, 1589,  912, 1156
3825,  301,  383,  293, 1474
3826, 1393,  450,  480,  449
3827, 1343, 1508,  498,  529
3828, 1343, 1472,  497, 1301
3829, 1417, 1418,  306, 1531
3830, 1486, 1432, 1415, 1412
3831, 1343, 1301,  497, 1508
3832, 1105, 1343, 1508, 1042
3833, 1372,  451,  482,  481
3834, 1343, 1042, 1472, 1301
3835, 1073, 1075, 1248, 1497
3836,  956,  995, 1236, 1252
3837, 1224, 1206, 1327, 1449
3838, 1095, 1287, 1176, 1288
3839, 1538, 1519,  310, 1181
3840, 1085,  378, 1087, 1363
3841, 1137,  907,  912, 1369
3842,  854,  485,  484,  454
3843, 1317, 1458, 1544, 1456
3844, 1354,  544,  543,  513
3845,  905,  906,  907, 1098
3846,  924,  926, 1481,  929
3847,  827, 1182,  941,  945
3848, 1271,  519,  488,  489
3849,  879,  932, 1075, 1172
3850,  824, 1110,  823,  820
3851, 1135, 1028, 1498, 1220
3852, 1272,  488,  487,  457
3853, 1519,  295, 1188,  385
3854, 1085, 1087,  378,  379
3855, 1511,  538,  569,  568
3856,  936,  941, 1414, 1577
3857, 1113,  490,  489,  459
3858, 1085, 1129, 1087, 1086
3859, 1007, 1386, 1490, 1141
3860,  835,  812,  842,  845
3861, 1065, 1329, 1330, 1066
3862, 1557, 1277,  555,  556
3863, 1373,  491,  490,  460
3864,  526, 1575,  495,  525
3865, 1084,  987, 1083, 1396
3866, 1085,  379,   89,  290
3867, 1131,  519, 1271,  520
3868, 1557, 1277,  556,  962
3869, 1557,  960,  526, 1489
3870, 1391,  492,  491,  461
3871,  368, 1529, 1432, 1531
3872, 1453,  483,  453,  484
3873, 1086, 1013, 1053, 1260
3874, 1013, 1491, 1129, 1014
3875,  970, 1260, 1259, 1053
3876, 1425, 1211, 1052, 1251
3877, 1389,  493,  492,  462
3878, 1425, 1473, 1013, 1433
3879, 1050, 1211, 1053, 1013
3880, 1219,  467,  466,  436
3881, 1052, 1053,  970,  971
3882,  903, 1111, 1183,  944
3883, 1574,  494,  493,  463
3884, 1052,  970,  973,  971
3885, 1260,  290, 1129, 1491
3886, 1274,  460,  429,  430
3887, 1425, 1052,  973, 1251
3888, 1390,  523,  492,  493
3889, 1557,  526,  557,  556
3890, 1037, 1038,  500,  499
3891,  924, 1454, 1481, 1305
3892, 1481,  929,  926,  867
3893, 1104,  561, 1365, 1105
3894, 1481,  533,  867, 1292
3895, 1114, 1207, 1115,  688
3896, 1039, 1038,  501,  500
3897, 1024, 1064, 1483, 1134
3898, 1527,  496,  495,  465
3899, 1525,  433, 1568,  464
3900, 1407, 1534, 1539, 1409
3901, 1282, 1116, 1207, 1115
3902, 1030, 1057, 1482, 1051
3903, 1056, 1118, 1436, 1266
3904, 1057, 1382, 1383, 1058
3905, 1013, 1129, 1128, 1014
3906, 1520,  497,  496,  466
3907, 1282, 1116, 1283, 1509
3908,  509,  479, 1082,  540
3909, 1393,  480,  450,  481
3910,  846,  835,  839,  842
3911, 1114,  146,   29,  136
3912, 1543,  510,  541,  571
3913, 1209, 1015, 1128, 1214
3914, 1213, 1212, 1429, 1570
3915, 1160,  428,  397,  398
3916,  989, 1278, 1582, 1464
3917, 1155, 1315, 1314, 1316
3918, 1336,  500,  531,  530
3919, 1114,  136, 1116,  146
3920, 1013, 1554, 1433, 1473
3921, 1213, 1128, 1013, 1086
3922, 1041,  499,  498,  468
3923, 1260, 1013, 1053,  970
3924, 1332, 1034, 1522, 1330
3925, 1328, 1329, 1034, 1332
3926,  530, 1336, 1105,  561
3927, 1423,  484,  515,  514
3928, 1330, 1034, 1522, 1521
3929, 1329, 1330, 1408, 1521
3930, 1038,  500,  499,  469
3931,  835,  873,  843,  844
3932, 1365,  559,  528,  529
3933,  950,  836,  841, 1209
3934, 1571, 1547, 1116,  136
3935, 1365,  530,  560,  529
3936, 1407, 1539, 1063, 1409
3937, 1038,  501,  500,  470
3938, 1329, 1408, 1066, 1409
3939, 1357,  511,  480,  481
3940, 1326, 1340,  981,  610
3941, 1194, 1180,  322,  302
3942,  525, 1557, 1489, 1490
3943, 1425,  972,  970, 1473
3944, 1013, 1128, 1015, 1014
3945, 1299, 1364,  558,  559
3946, 1219, 1063, 1528, 1218
3947, 1015, 1584, 1070, 1069
3948, 1128, 1214, 1069, 1132
3949,  931,  918, 1072, 1226
3950, 1454,  532,  562,  531
3951, 1083,  479,  449,  480
3952, 1365,  529,  560,  559
3953, 1434, 1313, 1518, 1309
3954, 1426, 1058, 1188, 1181
3955, 1309, 1311,  394, 1530
3956, 1516, 1518,  363, 1564
3957,  989, 1278, 1187, 1582
3958, 1481,  563,  532,  533
3959, 1309, 1311, 1313,  393
3960, 1291,  535,  534,  504
3961,  523,  554, 1276, 1428
3962, 1308, 1309, 1530, 1311
3963,  876, 1082, 1081, 1084
3964, 1257,  504,  503,  473
3965, 1393, 1372, 1356,  481
3966, 1070, 1363,  377,  313
3967, 1243, 1439, 1478, 1224
3968, 1393,  449, 1278,  450
3969,  972,  971,  412,  413
3970, 1269, 1341, 1352,  582
3971, 1292,  564,  533,  534
3972,  987, 1396,  989, 1278
3973, 1290,  505,  504,  474
3974,  868, 1120, 1121,  869
3975, 1052,  971, 1268, 1258
3976, 1083, 1278, 1393,  449
3977, 1088,  507,  508,  538
3978, 1344,  506,  505,  475
3979,  960,  961,  557,  558
3980, 1426, 1251, 1479, 1573
3981,  990, 1251, 1426, 1573
3982, 1314,  192,  181,  180
3983, 1089,  477,  507,  476
3984, 1082, 1500, 1090,  509
3985, 1149, 1088, 1081,  882
3986, 1490,  525, 1575, 1489
3987,  387,  418, 1582, 1187
3988, 1426, 1181, 1424, 1058
3989, 1088,  882,  538,  539
3990, 1345,  537,  536,  506
3991, 1090,  509,  508,  478
3992,  876, 1077, 1080, 1079
3993, 1500,  509,  539,  508
3994, 1088, 1089,  508,  507
3995, 1372,  482, 1388, 1144
3996,  932, 1163, 1075, 1172
3997, 1345,  505, 1344,  506
3998, 1426, 1188, 1058, 1187
3999, 1545,  171,  149,  150
4000, 1384,  343, 1403, 1435
4001, 1088, 1090, 1500,  508
4002, 1423,  514,  483,  484
4003, 1064, 1411, 1062, 1066
4004, 1498, 1135, 1331, 1028
4005,  949, 1062,  948, 1061
4006, 1392,  480,  510,  479
4007, 1277, 1465, 1043,  586
4008, 1481,  532, 1039,  533
4009, 1203, 1565, 1367,  516
4010, 1064, 1028, 1136, 1331
4011, 1210, 1013, 1016, 1554
4012, 1167, 1174,  600, 1168
4013,  540,  509,  539, 1500
4014, 1543,  571, 1499,  510
4015,  949, 1066, 1064, 1062
4016, 1412,  936, 1414, 1415
4017, 1357,  512,  511,  481
4018, 1177,  542,  511,  512
4019, 1163, 1593, 1361, 1578
4020, 1578,  536,  567,  566
4021, 1300, 1575,  495,  526
4022, 1401, 1595, 1100, 1402
4023, 1412, 1010,  946, 1418
4024, 1412,  936,  941, 1414
4025, 1010,  942, 1412,  946
4026, 1516,  279,  364,   74
4027, 1516,  363,  297,   73
4028, 1516,  297, 1518,  352
4029, 1516, 1563, 1307, 1009
4030, 1516, 1564, 1307, 1518
4031,  940,  821, 1141,  982
4032, 1333, 1335,  456,  455
4033, 1118, 1307, 1122, 1308
4034,  515, 1565, 1517,  484
4035, 1120,  853,  869,  855
4036, 1517,  485,  486,  516
4037,  515,  545, 1205,  514
4038, 1043, 1493, 1019,  554
4039, 1505, 1418, 1010, 1529
4040, 1278,  419, 1464,  450
4041,  516, 1565, 1517,  515
4042,  869, 1120,  855, 1059
4043,  367,  368, 1529, 1432
4044,  869, 1121,  817, 1348
4045, 1531, 1486,  282,  306
4046,  869, 1351, 1076, 1423
4047, 1494, 1313, 1434, 1312
4048, 1418, 1432, 1010, 1529
4049, 1122, 1434, 1222, 1307
4050,  881,  570, 1499,  571
4051, 1366,  487,  518,  517
4052,  975,  578,  548,  579
4053,  550, 1368, 1352,  519
4054,  847, 1337,  852, 1202
4055,  855,  853,  869, 1348
4056, 1531,  298, 1529,  281
4057, 1275, 1414,  430, 1413
4058, 1488,  551,  521,  552
4059, 1487,  521,  522,  552
4060, 1368,  549,  519,  550
4061, 1353,  581, 1339,  580
4062, 1333, 1334, 1335,  455
4063, 1278,  419, 1582, 1464
4064, 1250, 1573, 1225,  446
4065, 1272,  519,  518,  488
4066, 1271,  489,  490,  520
4067, 1499,  540,  539, 1500
4068, 1287,  880, 1499,  881
4069, 1276,  554,  523,  524
4070, 1535, 1123,  405,  406
4071,  961,  558, 1364,  589
4072,  876, 1079, 1081, 1082
4073,  831,  986,  886,  842
4074, 1075, 1578, 1226, 1248
4075, 1427,  491,  521,  490
4076,  953,  615,  645,  614
4077, 1354,  544, 1239,  543
4078, 1079, 1287,  880, 1499
4079,  982, 1175, 1386, 1142
4080, 1046,  844, 1049, 1048
4081, 1260,  380,  290,  291
4082,  937, 1275, 1389, 1391
4083, 1427,  492,  522,  491
4084,  817, 1193, 1351,  816
4085, 1357, 1392,  480,  511
4086,  944, 1222, 1221, 1381
4087, 1076, 1492, 1360, 1144
4088, 1275,  461, 1577, 1389
4089,  479, 1082,  540,  510
4090, 1068, 1070, 1566, 1363
4091, 1380,  164, 1228,  194
4092, 1488,  520,  521,  551
4093, 1352,  519,  520,  550
4094, 1076, 1360, 1077, 1144
4095, 1487,  552,  522,  553
4096, 1427,  523,  522,  492
4097, 1057, 1124, 1433, 1424
4098, 1024, 1028, 1026, 1025
4099, 1275,  461, 1274,  430
4100, 1524,  462,  431,  432
4101, 1356,  512,  482,  513
4102, 1428,  523,  553,  522
4103, 1433, 1057, 1504, 1482
4104, 1578,  536,  566,  535
4105,  991, 1090, 1047, 1250
4106, 1575,  525,  494,  495
4107, 1037,  929,  928, 1105
4108, 1333,  486,  455,  456
4109,  845,  844, 1048, 1072
4110, 1444,  180,  169,  172
4111, 1352,  551,  550,  520
4112, 1334,  424, 1335,  455
4113, 1083, 1392, 1077, 1082
4114, 1490,  525,  524,  494
4115,  987,  871, 1077, 1372
4116, 1057, 1424, 1504, 1382
4117, 1557,  525,  555,  524
4118, 1049, 1152, 1249, 1344
4119, 1375, 1162,  196, 1112
4120,  960,  557,  526,  527
4121, 1426, 1573, 1479, 1225
4122, 1124, 1030, 1057, 1433
4123, 1095, 1080, 1286, 1079
4124,  876, 1074,  994, 1081
4125,  987, 1187,  990,  989
4126, 1301,  497,  527,  496
4127, 1265,  989, 1195, 1582
4128, 1490, 1557,  524,  525
4129, 1204,  549,  579,  548
4130,  836, 1050, 1209, 1210
4131, 1217, 1466, 1549, 1216
4132, 1374, 1468, 1378, 1380
4133,  924, 1305, 1481, 1071
4134, 1336,  530,  499,  500
4135, 1207, 1509, 1555,  175
4136, 1343,  499, 1105,  529
4137,  987,  871, 1372, 1278
4138, 1343,  529,  498,  499
4139, 1227, 1412, 1010,  942
4140, 1406, 1252, 1542, 1255
4141, 1135, 1182, 1254, 1331
4142, 1448,  177,  187,  195
4143, 1051, 1266, 1384, 1403
4144, 1266, 1384, 1436, 1194
4145, 1026, 1220, 1403, 1025
4146, 1262,  561,  591,  560
4147, 1055, 1265, 1523, 1582
4148, 1029, 1016, 1210, 1134
4149, 1135,  945, 1220, 1254
4150, 1216, 1217, 1594,  618
4151, 1299,  960,  527,  558
4152,  961,  960, 1364,  558
4153,  960, 1364,  558, 1299
4154, 1299, 1175, 1300, 1489
4155, 1236, 1299,  959, 1175
4156, 1384,  333, 1494, 1495
4157,  985,  504,  505,  535
4158, 1024, 1027, 1026, 1030
4159,  970, 1013, 1211, 1425
4160, 1384, 1435,  333,  343
4161, 1039,  532,  531,  501
4162, 1292,  503,  534,  533
4163, 1039,  533,  532,  502
4164, 1149, 1249, 1318,  882
4165, 1209, 1213, 1128, 1013
4166, 1248,  567,  536,  537
4167,  948, 1060, 1062, 1015
4168, 1425, 1538, 1474, 1473
4169,  874,  878, 1080, 1078
4170,  993,  988, 1211, 1124
4171, 1022, 1480, 1506,  952
4172, 1299,  528,  559,  558
4173, 1205,  514, 1492,  515
4174, 1022,   16, 1506,  127
4175, 1301,  528,  527,  497
4176,  952, 1023,  675, 1022
4177, 1548,  163, 1380,  174
4178, 1359,  596,  565,  566
4179, 1022,  126,   15,   16
4180, 1508,  529,  528,  498
4181,  806,  807,  805,  820
4182, 1256,  472,  502,  471
4183, 1318,  506,  507,  537
4184, 1395,  596, 1358, 1359
4185, 1427,  820, 1373, 1385
4186, 1022, 1023,  675,  126
4187, 1345,  506,  536,  505
4188, 1385, 1428,  521, 1427
4189, 1305,  564,  594,  563
4190, 1433, 1424, 1473, 1504
4191, 1228, 1376, 1380, 1514
4192,  868, 1119, 1056, 1054
4193,  519,  518,  549, 1368
4194, 1426, 1479, 1538, 1519
4195, 1425, 1473, 1424, 1538
4196, 1425, 1538, 1426, 1479
4197, 1424, 1181, 1382, 1058
4198, 1487, 1493, 1270,  553
4199, 1266, 1403, 1222, 1435
4200, 1160, 1158,  947, 1011
4201, 1349, 1368,  518,  519
4202, 1495, 1195, 1323, 1265
4203, 1265,  390, 1523,  389
4204, 1269, 1488,  552,  551
4205, 1301,  497, 1508,  528
4206,  521, 1487, 1428, 1131
4207, 1122, 1434, 1435, 1222
4208, 1088,  508, 1500,  539
4209,  923, 1303, 1587, 1502
4210, 1158, 1011, 1160,  427
4211,  818, 1427, 1276, 1428
4212, 1187, 1189,  387,  386
4213, 1555, 1597,  159,  165
4214, 1478,  606,  636,  605
4215, 1545,  171,  150,  169
4216, 1096, 1206, 1449, 1238
4217, 1593,  567,  598,  597
4218, 1436, 1434, 1494, 1435
4219,  523, 1390, 1427, 1276
4220, 1141, 1140, 1574, 1389
4221, 1496,  572,  573,  603
4222, 1208,  560,  591,  590
4223, 1588, 1548, 1462,  154
4224, 1596, 1228,  164,  145
4225,  824,  937, 1275,  941
4226, 1177,  542,  541,  511
4227, 1228, 1596,  683,  145
4228, 1440,  639,  669,  638
4229,  961,  558,  589,  588
4230,  819,  818, 1390, 1141
4231, 1220, 1223, 1403, 1025
4232, 1381,  946,  944,  947
4233, 1167,  881,  570, 1533
4234, 1355,  514,  545,  544
4235, 1126,  182,  199,  184
4236, 1355,  544,  513,  514
4237, 1218, 1472, 1042, 1301
4238, 1040, 1218, 1472, 1042
4239, 1065, 1066, 1063, 1329
4240, 1105,  561, 1365,  530
4241,  809,  821,  807,  820
4242, 1205,  516,  546,  515
4243, 1166, 1171, 1172, 1168
4244, 1460, 1362, 1543, 1288
4245, 1166,  881, 1288,  919
4246, 1165, 1283, 1285, 1456
4247, 1094, 1093, 1098, 1398
4248, 1459,  633,  603,  664
4249,  904,  908,  912, 1156
4250, 1288,  881, 1543,  919
4251, 1478,  605, 1093,  606
4252, 1203,  516,  517,  547
4253, 1457, 1545, 1458, 1546
4254, 1317, 1457, 1169, 1139
4255,  848, 1045, 1044, 1202
4256, 1020, 1386, 1489, 1490
4257, 1073, 1497,  879, 1075
4258, 1094, 1288, 1362, 1496
4259, 1079, 1392, 1499, 1082
4260, 1478,  607,  637,  606
4261, 1509,  182,  175,  183
4262, 1031, 1033,  471, 1256
4263, 1449,  575,  545,  576
4264,  875, 1077, 1372, 1144
4265, 1204,  517,  518,  548
4266, 1354, 1286, 1360, 1356
4267, 1598,  598,  567,  568
4268, 1083, 1082,  448,  479
4269, 1079, 1287, 1543, 1176
4270, 1093,  574,  575,  605
4271, 1591, 1461,  662,  631
4272, 1499, 1392,  510, 1082
4273, 1392, 1499,  510, 1543
4274, 1044, 1206,  829, 1205
4275, 1204,  549,  548,  518
4276, 1349,  519, 1272, 1271
4277, 1296,  609,  639,  608
4278, 1245,  576,  606,  575
4279, 1269,  582, 1352,  551
4280, 1580,  694, 1581,  663
4281, 1173,  882, 1533, 1511
4282, 1353,  580, 1339, 1340
4283, 1024, 1027, 1136, 1025
4284, 1220, 1498, 1254, 1223
4285,  990, 1225, 1426, 1187
4286, 1167, 1173,  881, 1533
4287, 1166, 1170, 1167,  919
4288, 1213,  889, 1429, 1132
4289, 1053,  970,  971, 1259
4290,  970, 1537, 1473,  972
4291, 1113,  459, 1373,  490
4292, 1269,  582,  551,  552
4293, 1584, 1214, 1015, 1060
4294,  810,  826,  827,  825
4295,  867,  533, 1039,  502
4296, 1477, 1214, 1584, 1060
4297,  880, 1081, 1499,  882
4298, 1271,  519,  489,  520
4299, 1333,  456,  487,  486
4300, 1248, 1345, 1578, 1226
4301, 1289, 1344,  985, 1290
4302, 1289, 1290,  985, 1291
4303, 1164, 1302, 1163, 1285
4304, 1256,  472,  503,  502
4305, 1031, 1033,  470,  471
4306, 1431,  134,  157,  148
4307, 1173, 1174, 1172, 1497
4308, 1158, 1159,  458,  427
4309,  959, 1299, 1489, 1175
4310, 1575, 1489,  526, 1300
4311,  963, 1280, 1165,  966
4312, 1374, 1162, 1231, 1468
4313, 1428,  554,  553,  523
4314,  905,  907,  911, 1099
4315, 1001, 1320, 1321, 1017
4316, 1000,  986, 1241, 1175
4317, 1299,  559, 1365, 1364
4318,  526, 1557, 1489,  525
4319, 1449,  576, 1245,  575
4320, 1299, 1300,  527, 1489
4321, 1557,  526,  556,  525
4322, 1557,  526,  960,  557
4323,  960, 1489,  527,  526
4324, 1241, 1365, 1299, 1508
4325, 1353,  550,  580,  549
4326, 1336,  531,  562,  561
4327, 1241, 1508, 1105, 1365
4328,  959,  960, 1557, 1489
4329,  524, 1020, 1277, 1557
4330, 1018, 1319, 1277,  962
4331, 1346, 1179,  857, 1448
4332, 1451,  197,  200,  187
4333, 1547,  149,  171,  176
4334, 1476, 1347, 1023,  997
4335, 1337, 1586, 1347, 1475
4336, 1347, 1338,  861,  998
4337, 1198,  563,  593,  562
4338, 1476, 1561, 1347,  997
4339, 1347,  998,  861,  996
4340, 1179,  857, 1448, 1147
4341, 1198,  563,  594,  593
4342,  860,  862, 1267, 1178
4343,  998,  953,  861,  996
4344,  859, 1347, 1337,  861
4345, 1365,  530,  561,  560
4346, 1112,  199,  192,  196
4347,  857,  191,  968, 1235
4348, 1202, 1200, 1326,  975
4349, 1347,  996,  997,  998
4350, 1557,  556,  555,  525
4351, 1470, 1259, 1260,  411
4352, 1267, 1269, 1341, 1196
4353, 1337,  861, 1347, 1338
4354, 1201, 1196, 1341, 1339
4355, 1347, 1475, 1586, 1561
4356, 1544, 1559, 1283, 1547
4357, 1369, 1455, 1400, 1443
4358, 1260,  411, 1086,  380
4359, 1260,  970, 1491, 1013
4360, 1163, 1593, 1510, 1395
4361, 1454,  563,  562,  532
4362, 1169, 1461, 1455, 1458
4363, 1457, 1169, 1455, 1458
4364, 1337, 1339, 1338, 1586
4365, 1137, 1444, 1457, 1443
4366, 1481,  564,  563,  533
4367, 1455, 1400, 1599, 1580
4368, 1315,  181,  192,  185
4369, 1455, 1599, 1546, 1580
4370, 1297, 1421, 1476, 1234
4371, 1253, 1208, 1325, 1364
4372, 1293,  565,  534,  535
4373, 1267, 1422,  861, 1341
4374, 1178,  954,  952,  953
4375, 1559,  185,  176,  171
4376,  996,  952, 1480, 1023
4377, 1359,  596,  566,  597
4378, 1032, 1038, 1485, 1033
4379, 1179, 1448, 1446, 1447
4380, 1283, 1456, 1547, 1571
4381,  961,  558,  588,  557
4382, 1259, 1260,  411, 1086
4383, 1293,  566,  565,  535
4384,  922, 1253, 1261, 1325
4385, 1282, 1117, 1115, 1556
4386, 1544, 1547, 1283, 1456
4387, 1285, 1456, 1571,  900
4388, 1285, 1587, 1556, 1502
4389, 1208, 1261, 1253, 1325
4390, 1208, 1325,  591, 1261
4391,  931, 1074,  878,  935
4392,  866, 1212, 1256, 1429
4393, 1569, 1063, 1526, 1528
4394, 1220, 1222,  897, 1026
4395, 1485, 1038,  469,  470
4396,  901,  660,  629,  630
4397, 1407, 1066, 1411, 1408
4398, 1591,  631,  661,  630
4399, 1062, 1015, 1410, 1016
4400,  943,  942,  824, 1110
4401,  817, 1078, 1350,  808
4402, 1364, 1236, 1241, 1299
4403, 1064, 1066, 1106, 1411
4404, 1135, 1064, 1331, 1028
4405, 1533,  569,  539,  570
4406,  842,  895,  951,  982
4407, 1174,  599,  569,  600
4408, 1134, 1015, 1062, 1016
4409, 1533,  569,  570,  600
4410, 1356, 1077, 1360, 1144
4411,  572,  542, 1177,  573
4412, 1398,  573,  574,  604
4413, 1448,  187,  200,  195
4414, 1253, 1325, 1255, 1406
4415, 1168,  630,  599,  600
4416, 1400,  695,  664,  634
4417, 1088, 1081,  882, 1499
4418, 1149,  880, 1073,  882
4419, 1357, 1393,  481,  480
4420, 1082, 1084,  478, 1090
4421, 1082,  448,  509,  478
4422, 1500, 1081, 1082, 1090
4423, 1082, 1499, 1500,  540
4424, 1399,  603,  604,  634
4425, 1402,  636,  637,  667
4426, 1239,  544,  575,  574
4427, 1177,  573,  543,  574
4428,  510, 1082,  540, 1499
4429, 1277,  556,  586,  555
4430, 1549, 1466, 1550, 1230
4431,  559, 1365,  528, 1299
4432, 1438, 1550, 1186, 1551
4433, 1471,  608,  577,  578
4434,  848, 1202,  852, 1045
4435, 1023,  125,  674,  675
4436, 1017, 1277, 1465, 1043
4437, 1319, 1277,  962, 1467
4438, 1466, 1551, 1465, 1217
4439, 1442, 1416,  308, 1486
4440,  980,  654,  684,  653
4441, 1442, 1522,  340,  308
4442, 1442,  340, 1035,  284
4443, 1122, 1183, 1308, 1307
4444, 1309, 1434, 1307, 1518
4445, 1434, 1494,  327, 1518
4446,  871,  869, 1059,  872
4447, 1059, 1312, 1342, 1436
4448, 1434, 1307, 1122, 1118
4449, 1434, 1563, 1222, 1307
4450, 1434,  327, 1494, 1435
4451,  171, 1544, 1315, 1503
4452, 1326,  579,  609,  578
4453, 1228,  161,  684,  166
4454, 1353, 1352,  550, 1368
4455, 1264, 1126, 1430, 1151
4456, 1039,  502, 1033,  867
4457, 1416, 1331,  332,  324
4458,  977,  980,  654,  655
4459, 1597,  165,  194,  131
4460, 1192, 1293, 1292, 1291
4461, 1340,  580,  610,  579
4462, 1166, 1169, 1170, 1139
4463, 1280, 1302, 1102, 1164
4464, 1405,  158,  670,  671
4465,  925, 1105, 1241, 1042
4466, 1481, 1454, 1039,  532
4467,  866, 1257, 1191, 1192
4468, 1071, 1361, 1292, 1293
4469, 1336, 1454,  929, 1104
4470, 1204,  579,  549,  580
4471, 1007, 1141,  821, 1386
4472,  996, 1023,  997,  952
4473, 1296,  610,  640,  609
4474,  909, 1155,  908, 1148
4475, 1394, 1171, 1512, 1172
4476, 1169, 1461, 1458, 1591
4477, 1455, 1580, 1459, 1400
4478, 1208, 1364,  559,  590
4479, 1369, 1401, 1443, 1400
4480, 1238, 1449, 1239, 1355
4481, 1208,  590, 1325, 1364
4482,  998,  612,  613,  643
4483, 1460, 1459, 1445, 1139
4484, 1255, 1406, 1541, 1284
4485, 1395,  627,  596,  597
4486, 1513,  179,  168,  157
4487, 1133, 1269, 1352, 1488
4488, 1571,  902,  691,  690
4489,  862, 1322, 1346,  996
4490, 1055,  871, 1143, 1059
4491, 1352,  551,  582,  581
4492, 1543,  541,  572,  602
4493, 1292,  533,  502,  503
4494, 1264, 1151, 1112, 1126
4495, 1270,  552,  553,  583
4496, 1444,  172, 1401, 1370
4497, 1339,  612,  611,  581
4498, 1264, 1101, 1126, 1112
4499, 1502, 1115,  657, 1556
4500, 1043,  584,  554,  585
4501, 1600, 1545,  149,  150
4502, 1430, 1555, 1151, 1126
4503, 1043,  553,  554,  584
4504, 1151, 1509,  182, 1555
4505, 1151, 1509, 1559,  176
4506, 1151, 1112, 1126,  199
4507, 1151,  176, 1559,  185
4508, 1151, 1126,  182,  199
4509, 1458, 1579, 1545, 1583
4510, 1465,  616,  585,  586
4511, 1179, 1147, 1451,  908
4512, 1457, 1444, 1503, 1443
4513, 1277,  556,  587,  586
4514, 1138,  912, 1315, 1503
4515, 1580, 1458, 1579, 1546
4516,  941, 1274,  942, 1227
4517,  931, 1073,  879, 1075
4518, 1467,  587,  617,  586
4519, 1404,  135, 1431,  669
4520, 1594,  588,  618,  587
4521, 1291,  534,  503,  504
4522, 1600, 1545, 1583, 1456
4523,  938,  936, 1328, 1524
4524,  570,  600, 1167, 1533
4525,  921,  922,  923, 1263
4526, 1228,  684,  979,  980
4527, 1292,  565,  564,  534
4528, 1401,  168,  172,  148
4529, 1370,  168,  180,  172
4530, 1542,  588,  589,  619
4531, 1172, 1598, 1497, 1174
4532, 1171, 1172, 1168, 1512
4533, 1043,  585,  555,  586
4534, 1544, 1559, 1545,  171
4535, 1364,  559,  589,  558
4536, 1600,   31,  138,  137
4537, 1395, 1358,  596,  627
4538, 1317, 1458, 1457, 1544
4539, 1394, 1510,  900, 1395
4540, 1364,  590,  589,  559
4541, 1588,  154,  129,  186
4542, 1283, 1151, 1430, 1509
4543, 1262,  561,  592,  591
4544, 1325,  590,  591,  621
4545, 1481, 1071, 1305, 1304
4546,  984, 1206, 1096,  829
4547, 1305,  595,  594,  564
4548, 1315,  181,  185,  171
4549,  964, 1102,  963,  967
4550, 1103, 1104, 1198, 1262
4551,  138, 1600, 1583,   31
4552, 1455, 1445, 1399, 1459
4553, 1571, 1117,  690,  136
4554,  900, 1285, 1117, 1571
4555, 1571,  149, 1600, 1547
4556, 1324,  622,  623,  653
4557, 1571, 1547,  136,  149
4558, 1283, 1571, 1116, 1117
4559, 1571,  136, 1116, 1117
4560, 1347, 1338,  997, 1561
4561, 1476, 1421, 1452, 1561
4562, 1197,  968, 1147, 1156
4563, 1146, 1162, 1101, 1109
4564, 1101, 1112, 1148, 1109
4565, 1412, 1531, 1417, 1486
4566, 1281, 1282, 1430, 1553
4567,  930,  879,  931,  935
4568, 1282, 1207, 1555, 1553
4569, 1374, 1162, 1468, 1380
4570, 1221, 1222, 1223, 1563
4571,  921,  625,  624,  594
4572, 1449,  544,  545,  575
4573, 1304,  564,  565,  595
4574, 1135,  945, 1254, 1182
4575,  945, 1221, 1220, 1254
4576,  943,  947,  946,  942
4577, 1304,  595,  565,  596
4578, 1375,  184,  196,  174
4579, 1587,  595,  596,  626
4580, 1571,  691, 1600,  137
4581,  901,  661,  660,  630
4582, 1563, 1307, 1381, 1222
4583, 1381, 1563, 1221, 1576
4584, 1381,  946, 1576, 1221
4585,  943, 1110,  947,  942
4586, 1270, 1269,  552,  583
4587, 1459,  663,  632,  633
4588, 1269, 1488,  551, 1352
4589, 1339, 1352, 1353, 1196
4590, 1352, 1341, 1339,  581
4591, 1352, 1341, 1269, 1196
4592, 1456, 1547, 1600, 1545
4593, 1045,  975, 1471, 1327
4594, 1270,  584,  583,  553
4595, 1267, 1196,  850,  892
4596, 1442, 1035, 1522, 1036
4597, 1269,  583, 1422,  582
4598, 1598,  598,  568,  599
4599,  936, 1182, 1332, 1415
4600, 1412,  941,  945,  942
4601, 1168,  630,  600,  631
4602, 1036, 1532, 1332, 1415
4603, 1198,  562,  593,  592
4604,  919,  601,  571,  602
4605, 1307, 1306, 1118, 1434
4606, 1417,  945, 1182, 1254
4607, 1182, 1331, 1332, 1416
4608, 1170,  632,  602,  633
4609, 1417, 1412, 1486, 1416
4610,  987, 1084, 1083, 1077
4611, 1176, 1543,  510,  541
4612, 1571,  137,  136,  690
4613,  577, 1449,  975,  546
4614, 1130, 1271, 1113, 1385
4615, 1193, 1107, 1203, 1367
4616, 1205, 1238, 1355, 1449
4617,  924, 1305, 1102, 1198
4618, 1439,  638,  607,  608
4619, 1292, 1291,  534,  503
4620, 1460,  633,  572,  603
4621, 1481, 1305,  563,  564
4622, 1104, 1454,  562, 1336
4623,  985,  535, 1291,  504
4624, 1397,  604,  605,  635
4625,  985, 1293,  535, 1578
4626, 1496,  603,  573,  604
4627,  985, 1578, 1226, 1293
4628,   72,  362,  297,  321
4629, 1459,  664,  603,  634
4630, 1247, 1243, 1295, 1440
4631, 1431, 1242,  668, 1402
4632, 1398,  604,  574,  605
4633, 1093,  606,  605,  575
4634, 1401, 1246, 1513, 1402
4635, 1492, 1238, 1355, 1205
4636,  907, 1369, 1371, 1246
4637, 1243, 1440, 1478, 1439
4638, 1439,  608,  639,  638
4639, 1096, 1239, 1449, 1245
4640, 1371, 1098, 1242, 1397
4641, 1245,  607,  606,  576
4642, 1444, 1314,  912, 1503
4643, 1444, 1443,  169, 1503
4644, 1101, 1264, 1148, 1112
4645, 1165, 1161, 1317,  978
4646, 1224,  607,  577,  608
4647, 1339,  581,  611,  580
4648, 1580, 1546, 1455, 1458
4649, 1296,  641,  640,  610
4650, 1506,  952,  677,  676
4651, 1165, 1161, 1283, 1456
4652, 1471,  609,  608,  578
4653, 1267, 1341, 1269, 1422
4654,  362,  297,  321, 1518
4655, 1481,  533, 1292,  564
4656, 1518,  363, 1564, 1309
4657, 1356, 1144, 1492,  513
4658, 1326,  610,  609,  579
4659,  879, 1172, 1075, 1497
4660, 1098, 1478, 1243, 1242
4661, 1419,  641,  671,  640
4662, 1340,  611,  610,  580
4663, 1422,  583,  613,  582
4664, 1355,  514, 1492, 1205
4665, 1205, 1449,  545,  546
4666,  514,  545, 1205, 1355
4667, 1170, 1459, 1461,  632
4668, 1355, 1492,  514,  513
4669, 1089,  477, 1090,  508
4670, 1170,  631,  600,  601
4671, 1089,  477, 1250, 1090
4672, 1424,  988, 1425, 1426
4673, 1184,  584,  614,  583
4674, 1341,  613,  612,  582
4675, 1088, 1499,  539, 1500
4676, 1184,  585,  615,  584
4677, 1081, 1088, 1500, 1499
4678, 1422,  614,  613,  583
4679, 1213, 1214, 1132, 1429
4680,  991, 1084, 1081, 1090
4681,  992, 1251,  988,  990
4682,  869, 1143,  871, 1059
4683, 1597,  686,  131,  685
4684, 1184,  615,  614,  584
4685, 1356,  481, 1372,  482
4686, 1388, 1144,  482,  483
4687,  953,  646,  645,  615
4688,  840,  842,  898,  895
4689, 1114, 1116,  136, 1117
4690, 1465,  616,  586,  617
4691,  869, 1348, 1351, 1453
4692, 1550,  678,  648,  679
4693, 1551,  616,  617,  647
4694, 1372, 1388,  451, 1143
4695, 1423, 1388,  483, 1144
4696, 1080, 1079, 1287,  880
4697, 1287, 1543, 1288,  881
4698, 1451, 1314, 1589,  193
4699, 1518, 1563,  352,  327
4700,  881,  571,  919,  570
4701, 1542,  589,  620,  619
4702,  881, 1543,  919,  571
4703, 1406,  620,  589,  590
4704, 1594,  618,  588,  619
4705, 1379,  652,  683,  682
4706, 1173, 1248, 1511, 1497
4707, 1166,  919, 1460, 1170
4708,  960,  959, 1299, 1489
4709, 1309,  362, 1518,  363
4710, 1583,   31,  692,  138
4711, 1236, 1364, 1252,  961
4712, 1164, 1510, 1394, 1395
4713, 1001, 1185, 1012, 1017
4714, 1205,  515, 1565,  516
4715, 1203, 1205,  516,  547
4716, 1423, 1565, 1351, 1492
4717,  975,  579, 1326,  578
4718,  979,  684,  683,  653
4719, 1020, 1276, 1277, 1019
4720, 1406,  620,  590,  621
4721,  493, 1490, 1574, 1390
4722, 1261,  592,  622,  591
4723, 1557,  557,  960,  962
4724, 1020, 1276, 1490,  524
4725, 1128, 1132, 1068, 1087
4726, 1068,  378, 1087,  409
4727, 1261,  622,  592,  623
4728,  977,  624,  654,  623
4729, 1068, 1363, 1566, 1015
4730, 1193,  829,  808, 1350
4731, 1068, 1015, 1566, 1070
4732, 1556,  626,  627,  657
4733, 1363, 1128, 1015, 1068
4734, 1303,  625,  595,  626
4735,  920,  656,  655,  625
4736, 1510,  628,  597,  598
4737, 1068, 1087,  378, 1363
4738, 1407, 1063, 1062, 1066
4739, 1061, 1484, 1123, 1477
4740, 1587,  626,  596,  627
4741, 1430, 1514, 1555, 1126
4742, 1512,  629,  598,  599
4743, 1597,  131,  166,  685
4744, 1265, 1436, 1342, 1495
4745, 1403, 1051,  343, 1384
4746,  840, 1040,  839,  951
4747,  332, 1330,  317,  328
4748, 1395,  627,  597,  628
4749, 1308, 1306, 1118, 1307
4750, 1328, 1568, 1525, 1567
4751, 1328, 1329, 1526, 1034
4752, 1329, 1569, 1526, 1409
4753, 1066, 1106, 1411, 1408
4754, 1374, 1377, 1379, 1255
4755, 1510,  628,  598,  629
4756, 1378, 1596, 1548, 1540
4757, 1378, 1596, 1380, 1548
4758, 1233, 1540, 1549, 1216
4759, 1231, 1162, 1146, 1468
4760, 1116, 1509,  183, 1547
4761, 1512,  629,  599,  630
4762,  965, 1101, 1264, 1148
4763, 1300, 1560, 1527,  495
4764, 1218, 1300, 1140, 1527
4765,  526,  496, 1300,  527
4766, 1591,  631,  662,  661
4767,  495,  496, 1300,  526
4768, 1170,  632,  631,  601
4769, 1400,  695,  634,  665
4770, 1299,  527, 1300, 1301
4771, 1309, 1564, 1307, 1530
4772,  854, 1453,  453,  484
4773, 1423, 1492,  514,  515
4774, 1076, 1492, 1423, 1351
4775, 1130, 1349, 1107, 1240
4776,  869, 1423, 1453, 1351
4777,  869, 1143, 1059, 1387
4778, 1399,  634,  604,  635
4779, 1555,  175,  165,  159
4780, 1229, 1462,  178,  170
4781, 1440,  638,  668,  637
4782, 1581,  692,  661,  662
4783,  132,    5,  665,  666
4784,  854, 1453, 1348,  855
4785,  869, 1453, 1387,  855
4786, 1397,  636,  635,  605
4787, 1357, 1392, 1077, 1393
4788, 1372,  450, 1464,  451
4789, 1058, 1187,  990, 1426
4790, 1372, 1388,  482,  451
4791, 1372,  450, 1278, 1464
4792, 1507,  128,  152,  144
4793,  944,  945, 1221, 1220
4794, 1478,  637,  636,  606
4795, 1330,  317, 1521, 1522
4796, 1060, 1535, 1477, 1123
4797, 1478,  637,  607,  638
4798,  938, 1140, 1524, 1525
4799, 1215, 1328, 1568, 1525
4800, 1028, 1220, 1025, 1498
4801, 1442, 1036, 1332, 1415
4802,  936, 1577, 1414, 1532
4803,  158,  670,  671,   10
4804,  818, 1427, 1390, 1276
4805, 1328, 1532, 1525, 1524
4806, 1527, 1215, 1528, 1568
4807, 1218, 1300, 1301, 1142
4808, 1586,  612,  642,  611
4809,  981,  611,  641,  610
4810,  975,  577,  546,  547
4811, 1296,  639,  609,  640
4812,  158,  671,   11,   10
4813,  896,  838,  897, 1119
4814, 1412,  941, 1182,  945
4815,  953,  614,  644,  613
4816, 1586,  642,  612,  643
4817,  143,   12, 1421,  673
4818, 1141, 1140, 1142, 1575
4819, 1300, 1142, 1140, 1575
4820,  942, 1159,  947, 1160
4821,  811,  831,  845,  884
4822,  691,   31,  692, 1583
4823,  997,  643,  644,  674
4824, 1412, 1418, 1417, 1531
4825, 1065, 1215,  938, 1328
4826,  827,  936,  941, 1182
4827, 1412, 1432, 1415, 1413
4828,  946, 1221,  945, 1576
4829, 1186,  616,  646,  615
4830, 1110,  947,  942, 1159
4831, 1480,  177,  151,  127
4832,  875,  871, 1143, 1372
4833, 1218, 1042, 1142, 1301
4834,  951, 1142, 1218, 1042
4835, 1217,  648,  617,  618
4836, 1022,  676,   15,  675
4837, 1008,  807,  821,  820
4838,  678, 1507, 1552,  954
4839, 1175, 1042, 1508, 1301
4840,   19,  679,  128,  129
4841,  866, 1256,  867, 1033
4842, 1064, 1330, 1331, 1106
4843,  949,  899,  898,  950
4844, 1186,  646,  616,  647
4845, 1551,  647,  617,  648
4846,  880,  881,  882, 1499
4847, 1216,  619,  649,  618
4848, 1381,  946,  947, 1011
4849, 1587, 1303,  626, 1502
4850, 1412, 1418, 1432, 1010
4851, 1216,  620,  650,  619
4852, 1215, 1328, 1329, 1526
4853, 1263,  921, 1198, 1305
4854, 1300, 1140, 1560, 1575
4855, 1183, 1530, 1154, 1515
4856, 1423,  484, 1565,  515
4857, 1216,  650,  649,  619
4858, 1563, 1223,  349,  345
4859, 1388, 1453,  452, 1387
4860, 1541,  652,  621,  622
4861, 1277,  962, 1467,  587
4862,  130,  681,   20,  680
4863, 1287,  881, 1499, 1543
4864, 1517,  515,  485,  516
4865, 1020, 1490, 1489, 1557
4866, 1210, 1013, 1554, 1433
4867, 1083, 1278,  449, 1396
4868, 1284,  651,  621,  652
4869, 1113,  458, 1159,  459
4870, 1380,  174,  163,  164
4871, 1082, 1392,  510,  479
4872,  826,  903,  944, 1111
4873,  871, 1372, 1464, 1143
4874, 1356, 1144, 1360, 1492
4875, 1541,  652,  622,  653
4876, 1502,  626,  656,  625
4877, 1453,  452, 1387,  453
4878,  854, 1517,  484,  485
4879,  951, 1175, 1142, 1042
4880,  917, 1226, 1578, 1293
4881, 1436, 1194, 1384, 1495
4882,  977,  655,  654,  624
4883,  184, 1375, 1380,  174
4884,  976, 1091,  984,  905
4885, 1047, 1153, 1049, 1052
4886,  869, 1453, 1388, 1387
4887, 1222, 1223,  345, 1403
4888, 1056, 1266, 1436, 1194
4889, 1235, 1023, 1585,  198
4890, 1384, 1051,  343, 1383
4891, 1266, 1194, 1383, 1384
4892, 1266, 1436, 1384, 1435
4893, 1502,  656,  626,  657
4894,  921,  594,  624,  593
4895, 1556,  658,  657,  627
4896, 1037,  499, 1041, 1038
4897, 1300, 1560, 1140, 1527
4898,  980,  685,  654,  655
4899, 1594, 1466, 1232, 1319
4900, 1102, 1303,  923, 1263
4901,  900,  658,  628,  659
4902, 1481,  867,  533, 1039
4903, 1516,   74,  363,   73
4904, 1117,  658,  659,  689
4905, 1583,  660,  661,  691
4906, 1382, 1482, 1051,  335
4907, 1382, 1383,  326,  334
4908, 1382, 1504,  335,  323
4909,  900,  660,  659,  629
4910, 1055, 1464,  989, 1582
4911, 1194,  989, 1058, 1195
4912, 1115,  688,  658,  689
4913, 1058, 1180, 1189, 1188
4914,  902,  690,  660,  691
4915, 1057, 1383, 1382, 1051
4916, 1382,  326, 1180, 1181
4917, 1382, 1180,  326, 1383
4918, 1426, 1187, 1225, 1188
4919, 1461,  632,  663,  662
4920, 1057, 1058, 1424, 1382
4921, 1580,  694,  663,  664
4922,  853, 1120, 1121, 1118
4923, 1241, 1508, 1299, 1175
4924, 1459,  664,  663,  633
4925,  996, 1585, 1023, 1480
4926,  554, 1276, 1428, 1019
4927, 1277, 1276,  555, 1019
4928, 1276, 1019,  554,  555
4929, 1267,  892, 1012, 1196
4930, 1402,  668,  667,  637
4931, 1240,  816, 1348, 1351
4932,  132,    6,    5,  666
4933, 1390, 1276,  523,  524
4934,  946, 1505, 1418, 1010
4935, 1505, 1529,   76,  281
4936, 1100,  666,  665,  635
4937, 1505, 1009, 1463,  365
4938,  365, 1010, 1505, 1009
4939, 1505,   75, 1463,  280
4940,  142,  667,  668,    7
4941,    9,  670,  669,  135
4942, 1562,  198,  143,  162
4943, 1505,   76,  365,   75
4944, 1239, 1245, 1093,  575
4945,  602, 1362, 1543, 1460
4946, 1100,  666,  636,  667
4947, 1166,  879, 1287,  881
4948, 1204, 1368, 1353,  549
4949, 1518,  362,  361,  321
4950, 1449, 1224,  576,  577
4951, 1243, 1242, 1440, 1247
4952, 1297, 1234, 1298, 1421
4953, 1297, 1234, 1244, 1298
4954, 1581, 1591, 1461,  662
4955,  862, 1322, 1145, 1179
4956, 1295, 1419,  670,  639
4957, 1440, 1441, 1243, 1295
4958, 1295, 1419, 1405,  670
4959, 1420, 1494, 1518,  327
4960, 1297, 1405, 1295, 1419
4961,  135,   10,    9,  670
4962, 1419,  670,  639,  640
4963, 1440,  668,  638,  669
4964, 1272,  488, 1271,  519
4965, 1390,  492, 1427, 1391
4966, 1440,  669,  639,  670
4967, 1419,  671,  670,  640
4968, 1273,  456, 1333, 1335
4969, 1133, 1012, 1269, 1270
4970, 1385,  521, 1271,  490
4971, 1561,  643,  673,  642
4972, 1419,  671,  641,  672
4973, 1428, 1493,  554, 1019
4974, 1563,  349, 1223, 1576
4975, 1428, 1493,  553,  554
4976, 1452,  673,  672,  642
4977, 1487, 1428, 1493,  553
4978, 1131, 1487, 1133, 1488
4979, 1232, 1378, 1216, 1284
4980, 1094, 1445, 1496, 1399
4981,  600, 1174, 1167, 1533
4982, 1511, 1248,  537,  568
4983, 1562,  673,  674,   13
4984, 1318,  538, 1511,  537
4985, 1533, 1499,  570,  539
4986,  538, 1533,  882, 1511
4987,  952,  646,  676,  645
4988,  539,  882, 1533, 1499
4989, 1249, 1318,  882, 1248
4990, 1195,  989, 1058, 1189
4991, 1125,  390, 1523, 1265
4992, 1194, 1180, 1383,  322
4993, 1167,  601,  919, 1170
4994, 1205, 1565,  515, 1492
4995, 1437, 1552,  152, 1507
4996, 1506,  677,   16,  676
4997,  952,  677,  676,  646
4998, 1167, 1170,  600,  601
4999,  881,  571, 1499, 1543
5000,  144,   17,  678,   18
5001, 1092, 1362, 1496, 1094
5002, 1362, 1543,  572,  602
5003, 1288, 1460,  919, 1543
5004,  954,  677,  647,  678
5005,  919, 1543,  602,  571
5006, 1041, 1061, 1484, 1219
5007,  954,  647,  677,  646
5008,  953,  645,  644,  614
5009, 1302, 1163, 1285, 1358
5010,  128,   18,  679,   19
5011,  128,  678,  679,   18
5012, 1588,  129, 1552,  679
5013, 1540,  651,  681,  650
5014, 1484, 1041, 1219,  467
5015, 1549, 1550,  648,  679
5016, 1549, 1216,  650,  649
5017, 1067, 1040, 1219, 1061
5018, 1544, 1545, 1559, 1547
5019, 1336, 1104,  561,  562
5020, 1037, 1343, 1041,  499
5021,  979,  683,  652,  653
5022, 1540,  681,  651,  682
5023, 1343, 1041,  498, 1472
5024, 1041, 1472,  467,  498
5025, 1241, 1365, 1105, 1104
5026, 1128, 1068, 1363, 1087
5027, 1214, 1031, 1132, 1429
5028, 1429,  472, 1570, 1256
5029, 1592,  160,  163,  186
5030, 1031, 1429,  471,  440
5031, 1456, 1571, 1600, 1547
5032, 1456,  900,  901,  902
5033, 1402, 1513,  148, 1431
5034, 1595,    6,  133,  132
5035, 1595,    6,  667,  133
5036, 1401, 1513, 1370,  168
5037,  667, 1595,  133, 1402
5038, 1595,  666, 1100,  667
5039, 1228,  161,  683,  684
5040, 1402, 1595,  133,  148
5041,  684,  980, 1597,  685
5042,  980,  685,  684,  654
5043, 1595,  665,  132, 1400
5044,  356,  287,  286, 1190
5045,  902,  660,  690,  659
5046, 1207,  688,   27,  687
5047, 1190, 1180,  309, 1188
5048, 1190, 1180, 1188, 1189
5049,  980,  685,  655,  686
5050, 1190, 1180,  302,  309
5051,  302, 1190,  287, 1195
5052, 1553,  687,  686,  656
5053, 1190, 1189,  356,  357
5054,  136,   29,  689,  690
5055, 1195, 1190,  287,  357
5056,  155, 1400,  132,  153
5057, 1328, 1567, 1526, 1568
5058, 1207,   28,   27,  688
5059, 1328, 1532, 1332, 1036
5060, 1063, 1526, 1329, 1569
5061, 1525, 1560, 1524,  463
5062, 1302,  923, 1587, 1502
5063, 1525, 1560,  464, 1568
5064,  381,  292,  291, 1537
5065,  382,  972,  292,  381
5066,  972,  292,  381, 1537
5067, 1537,  304, 1473, 1474
5068, 1117,  690,  689,  659
5069, 1471, 1296, 1327,  608
5070, 1260, 1470,  380,  381
5071, 1563,  327, 1435,  345
5072, 1537, 1473,  304,  303
5073, 1537, 1474,  972,  292
5074, 1581,  663,  694,  693
5075, 1583,  691,  661,  692
5076,   11,  167,  671,  158
5077, 1596,  160,   22,  145
5078, 1596,  160,  682,   22
5079, 1596, 1540, 1379,  682
5080, 1592, 1548, 1596, 1540
5081, 1581,  692,  662,  693
5082, 1596, 1379, 1380, 1228
5083, 1378, 1380, 1596, 1379
5084, 1596,  164, 1380,  163
5085, 1521, 1034,  372, 1409
5086, 1381, 1563, 1576, 1463
5087, 1521, 1409,  372,  373
5088, 1580,  695,  694,  664
5089,  139,  693,  694,   33
5090,   82,  372,  299,  314
5091, 1516, 1009, 1307, 1564
5092,  372,  299,  314, 1521
5093, 1521, 1408, 1409, 1534
5094, 1521,  317, 1408,  318
5095, 1329, 1409, 1521, 1408
5096,  141,    1,  665,    5
5097, 1588, 1592, 1549, 1548
5098,  147,  693,   32,  692
5099,  679,  128,  129, 1552
5100, 1215, 1525, 1568, 1560
5101, 1588,  186, 1548,  154
5102, 1552,  678, 1550,  679
5103, 1552, 1462,  152,  154
5104, 1552,  954, 1550,  678
5105,  133,    6,  667,    7
5106, 1028, 1136, 1331, 1498
5107, 1560, 1574,  463,  494
5108, 1560, 1524,  463, 1574
5109,  848, 1196, 1201, 1200
5110, 1560, 1574,  494, 1575
5111, 1300, 1560,  495, 1575
5112,  134,    8,  668,  669
5113,  142,    7,  668,    8
5114, 1414, 1413,  399,  430
5115, 1414, 1415,  399, 1413
5116, 1412, 1415, 1414, 1413
5117,  134,    9,    8,  669
5118, 1275,  430, 1414, 1577
5119, 1443,  153,  172,  169
5120, 1414,  431, 1532, 1577
5121, 1479, 1127,  383,  414
5122, 1479,  293, 1519,  384
5123, 1426, 1538, 1424, 1181
5124, 1479, 1538, 1519, 1474
5125, 1479,  414, 1573, 1127
5126,  167,   11,  671,  672
5127, 1580,  139, 1546, 1579
5128, 1455, 1580, 1458, 1461
5129,  167,   11,  672,   12
5130, 1452, 1421, 1419,  672
5131, 1458, 1581, 1461, 1580
5132, 1332, 1034, 1036, 1522
5133,  125,  675,   14,  674
5134,  143,   12,  673,   13
5135, 1580,  663, 1581, 1461
5136,  923,  920,  921, 1501
5137, 1587, 1358, 1556,  627
5138, 1587, 1304, 1358,  596
5139, 1285, 1556, 1587, 1358
5140, 1587, 1304,  595, 1303
5141, 1302, 1587, 1303, 1304
5142, 1535, 1539,  405, 1123
5143,  865, 1041, 1032, 1038
5144,  125,  126,   15,  675
5145, 1060, 1539, 1535, 1123
5146, 1065, 1330, 1064, 1066
5147, 1535,  376, 1536, 1070
5148, 1538, 1504,  323,  304
5149, 1425, 1479, 1474, 1538
5150, 1538,  293, 1474,  304
5151, 1538,  323, 1504, 1181
5152,  144,  678,   17,  677
5153, 1538, 1519, 1474,  293
5154, 1022,  127,  126,   16
5155, 1397,  604, 1399, 1398
5156, 1506,   16,   17,  127
5157, 1096, 1239, 1238, 1449
5158,  913,  914,  911,  976
5159, 1398, 1397,  605, 1093
5160, 1246, 1370, 1401, 1513
5161, 1095,  934, 1287, 1288
5162, 1398, 1093,  605,  574
5163, 1593, 1598, 1510,  598
5164, 1593, 1361,  566, 1359
5165, 1230, 1550, 1588, 1462
5166, 1588, 1549,  679, 1550
5167,  129,  680,   19,  679
5168, 1217, 1466, 1550, 1549
5169, 1232, 1216, 1378, 1233
5170, 1592, 1549, 1540,  681
5171, 1306, 1309, 1308, 1311
5172, 1309,  393, 1313,  362
5173, 1241, 1105, 1508, 1042
5174, 1379,  652,  682,  651
5175, 1309, 1530,  394, 1564
5176, 1308, 1311, 1530, 1335
5177, 1306, 1309, 1313, 1434
5178, 1597, 1228,  166,  194
5179,  130,   21,   20,  681
5180, 1136, 1498,  344, 1331
5181,  853, 1334,  856, 1310
5182, 1311,  424, 1310,  393
5183, 1455, 1443, 1599, 1400
5184,  145,   22,  683,   23
5185, 1599,  141, 1400,  153
5186, 1400, 1100, 1595,  665
5187,  166,   25,   24,  685
5188, 1459, 1400,  634, 1399
5189, 1599,  139,   34,  140
5190, 1381, 1183, 1307, 1154
5191, 1400,  634, 1399, 1100
5192, 1306, 1311, 1310, 1313
5193, 1307, 1564, 1154, 1530
5194,  161,   23,  684,   24
5195, 1154, 1009,  395, 1564
5196, 1183, 1158, 1154, 1011
5197, 1158, 1154,  426, 1515
5198, 1154,  426, 1530,  395
5199, 1469,  953,  646,  954
5200, 1178, 1184, 1469,  953
5201, 1184, 1469,  953,  615
5202, 1184, 1469,  615, 1186
5203, 1458, 1583, 1590, 1591
5204, 1394, 1458, 1456, 1590
5205, 1579,  692,  138, 1583
5206,  131,   26,   25,  686
5207, 1579, 1545, 1600,  150
5208, 1514,  165,  184,  194
5209, 1456, 1583,  902,  901
5210, 1600,  149, 1545, 1547
5211, 1571,  659,  902,  690
5212, 1114,  689, 1117,  136
5213, 1474,  292,  382,  972
5214, 1537, 1473,  972, 1474
5215, 1537,  972, 1470,  381
5216,  972,  973,  413, 1127
5217,  354,  341, 1498, 1223
5218,  383,  382, 1127, 1474
5219, 1553,  159,  686,  687
5220, 1207,  146,  159,   27
5221, 1425,  972, 1127,  973
5222,  990, 1573, 1426, 1225
5223,  136,   29,  690,   30
5224,  989, 1058, 1189, 1187
5225, 1279, 1187, 1396,  417
5226,  137,   30,  691,   31
5227,  147,   33,   32,  693
5228, 1084, 1279, 1396,  448
5229, 1279,  417, 1396,  448
5230,  138,   32,   31,  692
5231, 1115,  688,  657,  658
5232, 1406, 1542,  589,  620
5233, 1406, 1284, 1542,  620
5234, 1252,  961, 1406, 1542
5235,  140,  695,    1,   34
5236, 1406,  590, 1325,  621
5237, 1325,  622,  621,  591
5238, 1569,  405, 1539, 1123
5239, 1254, 1331,  324,  341
5240, 1063, 1569, 1539, 1123
5241, 1328, 1332, 1034, 1036
5242,  139,   33,  694,   34
5243, 1569,  435, 1526,  404
5244, 1106,  332, 1331,  344
5245, 1131,  520, 1488, 1352
5246,  975,  578,  577,  547
5247, 1302,  923, 1502, 1285
5248,  158,  135,  670,   10
5249, 1106, 1411,  328,  350
5250, 1339,  581, 1341,  612
5251, 1562,  143, 1421,  673
5252, 1562,   14,   13,  674
5253, 1561,  643,  674,  673
5254, 1136,  351, 1498, 1025
5255, 1552,  679,  128,  678
5256,  968,  189,  179,  191
5257,  998,  644,  643,  613
5258, 1581,  693,  662,  663
5259, 1261,  593,  624,  623
5260, 1476, 1421,  198, 1235
5261, 1461,  662,  631,  632
5262, 1184,  616,  615,  585
5263, 1039,  531,  500,  501
5264, 1452,  673, 1421,  672
5265, 1562,   13,  143,  673
5266,  671, 1419, 1405,  672
5267, 1234, 1298, 1421,  173
5268, 1421, 1235,  173,  198
5269, 1562,  162,   13,   14
5270, 1150,  168,  179,  189
5271,  134, 1402,  142,  148
5272, 1405,  188,  167,  173
5273,  344, 1498,  341, 1331
5274, 1404,  670,  135,  669
5275, 1117,  136,  689,  690
5276, 1136,  344, 1498,  351
5277, 1297,  981, 1452, 1419
5278, 1405,  158,  167,  188
5279,  997,  952, 1023,  675
5280, 1402,  142,  667,  668
5281,  137,   30,  136,  690
5282,  690, 1117, 1571,  659
5283, 1297, 1421, 1405, 1419
5284, 1324,  654,  653,  623
5285, 1498,  354, 1025,  351
5286,  848, 1201, 1196,  850
5287,  997,  675,  674,  644
5288,  125,   15,   14,  675
5289, 1045, 1471,  975, 1326
5290, 1402, 1431,  134,  668
5291, 1595, 1402,  667, 1100
5292, 1421,  167,  143,  173
5293, 1235,  191,  173,  198
5294, 1562,  674,  125,   14
5295, 1589,  189,  969,  193
5296,  990, 1225, 1279, 1250
5297, 1421,   12,  167,  672
5298, 1402, 1397,  636, 1100
5299, 1207,  146,   27,   28
5300, 1595,  155,  133,  148
5301,   28, 1207, 1114,  688
5302, 1116, 1207,  146, 1509
5303,  964,  933,  963, 1102
5304, 1207, 1555,  159,  175
5305, 1207,  687, 1115,  688
5306, 1401,  172,  155,  148
5307,  668, 1402,  142,  134
5308, 1207,  159, 1555, 1553
5309, 1207,   27,  159,  687
5310,  971, 1268,  443,  444
5311, 1282, 1207, 1553, 1115
5312, 1595,  132,  666,    6
5313,  666,  665,  132, 1595
5314, 1473, 1491, 1554,  325
5315, 1550,  648,  678,  647
5316, 1506,  954,  952, 1480
5317, 1549,  679,  648,  649
5318,  969,  189,  191,  200
5319, 1549,  680,  679,  649
5320,  129,   20,   19,  680
5321,  371,  372,  314, 1035
5322, 1217,  649,  648,  618
5323, 1467,  618,  617,  587
5324, 1592,  130,  680,  681
5325, 1329, 1526, 1034, 1409
5326, 1549,  680,  649,  650
5327, 1034, 1526,  403, 1409
5328, 1035,  372,  314, 1521
5329, 1184, 1186,  615,  616
5330,  677,  144, 1507, 1506
5331, 1506,  954, 1507,  677
5332, 1509,  182,  183,  176
5333, 1151, 1559, 1315,  185
5334, 1549, 1217,  649,  648
5335, 1446, 1229,  170, 1462
5336, 1549,  650, 1540,  681
5337, 1599, 1580,  694,  139
5338,  952,  675,  644,  645
5339,  852,  859, 1244, 1294
5340, 1562,  674, 1023,  125
5341, 1298,  188,  179,  157
5342, 1562,  673, 1561,  674
5343, 1552,  152, 1507,  128
5344, 1228,  145,  161,  164
5345, 1550,  647, 1551,  648
5346, 1588, 1592,  130,  680
5347, 1216,  651,  650,  620
5348, 1588, 1462, 1552,  154
5349, 1438, 1186, 1550,  954
5350, 1552, 1507,  678,  128
5351,  160,   21,  681,  682
5352,  160,   22,   21,  682
5353, 1270, 1422, 1269,  583
5354, 1549,  681,  680,  650
5355, 1012, 1184, 1043, 1185
5356,  129,  680,  130,   20
5357, 1428, 1131, 1385,  521
5358, 1487, 1270, 1488,  552
5359, 1588,  129,  680,  130
5360, 1192, 1289, 1293, 1291
5361, 1017, 1043, 1465, 1185
5362,  904, 1147,  908, 1156
5363, 1507,  678,  128,  144
5364,  128,   18,  144,  678
5365, 1053, 1086, 1259,  889
5366, 1548,  163,  178,  186
5367, 1549,  648, 1550, 1217
5368,  166,  685,   24,  684
5369,  131,   25,  685,  686
5370, 1277,  962,  587,  556
5371,  161,  684,   23,  683
5372, 1022, 1480,  151,  127
5373,  198, 1476, 1235, 1023
5374, 1347, 1023,  996, 1585
5375,  159,   26,  686,  687
5376,  159,   27,   26,  687
5377, 1228,  161,  194,  164
5378,   91,  381,  292,  291
5379, 1596,  163,  145,  164
5380, 1009, 1011,  395,  396
5381,  161,  166,   24,  684
5382, 1516, 1463,  364,  279
5383, 1115,  688,  687,  657
5384, 1115,  687,  656,  657
5385, 1114,   28,  688,  689
5386, 1023,  997,  675,  674
5387,  279, 1516,  352,  316
5388, 1553,  656,  686,  655
5389,  131,  166,  685,   25
5390, 1114,  689,   29,   28
5391, 1588,  129,  679,  680
5392,  145,  161,   23,  683
5393, 1381, 1011, 1183, 1154
5394, 1596,  160,  145,  163
5395,  681, 1540, 1596,  682
5396, 1434, 1563, 1307, 1518
5397, 1154, 1009, 1011,  395
5398, 1548,  174, 1380, 1162
5399, 1022,  127,  151,  126
5400, 1116,  136,  183,  146
5401, 1548, 1162,  178,  174
5402,  900,  659,  628,  629
5403,  675,  126,   15, 1022
5404, 1548, 1462,  154,  178
5405, 1378, 1596, 1540, 1379
5406, 1588,  679, 1552, 1550
5407, 1592, 1596,  163,  160
5408, 1117,  658, 1115, 1556
5409, 1114,  136,   29,  689
5410,  126, 1023,  675,  125
5411, 1140, 1524, 1560, 1574
5412, 1394, 1285, 1395,  900
5413, 1440, 1431, 1242,  668
5414, 1580, 1459,  663, 1461
5415,  142,    7,  133,  667
5416,  153, 1401,  155, 1400
5417, 1560, 1568, 1527,  464
5418, 1527, 1520, 1301,  496
5419, 1404,  157,  135,  188
5420, 1300,  495, 1527,  496
5421, 1218, 1527, 1528, 1520
5422, 1560,  464, 1527,  495
5423,  134,  142,  668,    8
5424, 1527, 1528, 1520,  465
5425, 1404,  670,  158,  135
5426, 1294, 1441, 1327, 1296
5427, 1441, 1296, 1295,  639
5428,  669,  134,  135, 1431
5429,  637, 1478,  636, 1402
5430, 1546,  156,  169,  150
5431, 1547,  149,  183,  136
5432, 1102, 1263, 1305, 1303
5433, 1270,  553, 1043,  584
5434, 1441, 1296,  608, 1327
5435, 1126,  182,  184,  165
5436, 1446,  170,  187,  177
5437, 1441,  608, 1439, 1327
5438,  924, 1071, 1481,  926
5439, 1481, 1292,  867,  926
5440, 1400, 1100,  665,  634
5441, 1292, 1291, 1293,  534
5442, 1353,  580,  550,  581
5443, 1039,  532,  501,  502
5444, 1291, 1293,  534,  535
5445, 1023, 1585,  198,  151
5446, 1170, 1461,  631,  632
5447, 1583, 1581, 1591, 1458
5448, 1544, 1456, 1283, 1161
5449,  985, 1293, 1291,  535
5450, 1289, 1291,  985, 1293
5451, 1547,  149,  176,  183
5452,  900,  659,  902, 1571
5453, 1239,  574,  543,  544
5454,  927,  929, 1039,  867
5455,  686,  131,  159, 1597
5456,  985,  504, 1291, 1290
5457, 1260, 1537,  970, 1470
5458, 1597,  686, 1553,  159
5459, 1032, 1031, 1033, 1485
5460, 1485, 1584,  438, 1477
5461, 1502, 1556,  657,  626
5462, 1485, 1484,  468, 1038
5463, 1151,  185,  182,  176
5464, 1555,  182,  165,  175
5465, 1540,  651, 1284, 1379
5466, 1592, 1540, 1596,  681
5467, 1205,  547,  546,  516
5468, 1571,  902, 1600,  691
5469, 1571,  137,  690,  691
5470,  141,    1,  140,  695
5471,  682,  681,  160, 1596
5472, 1581, 1461,  663,  662
5473,  666, 1595,    6,  667
5474, 1023, 1585,  151, 1480
5475,  661, 1581, 1591, 1583
5476,  147,  692,   32,  138
5477, 1397,  605, 1478,  636
5478,  694, 1599,   34,  695
5479, 1401, 1443, 1400,  153
5480, 1579,  150, 1546, 1545
5481, 1579, 1600, 1545, 1583
5482,  694, 1579,  693,  139
5483, 1461, 1459, 1139, 1455
5484, 1443,  153,  169,  156
5485, 1599,  139,  140,  156
5486, 1155, 1161, 1138, 1315
5487, 1599,   34,  695,  140
5488, 1579, 1600,  138,  150
5489, 1583,  691,  902,  660
5490,  141,  132,    5,  665
5491, 1581, 1591,  662,  661
5492, 1476, 1347, 1561, 1475
5493, 1400,  141,  665,  132
5494, 1583,  660,  902,  901
5495, 1178,  996,  953,  952
5496, 1421,  143,  198,  173
5497, 1491, 1554,  330, 1014
5498, 1476, 1562,  198, 1421
5499,  968,  173, 1235,  191
5500,  952,  676,  675,  645
5501, 1022,   16,   15,  676
5502, 1446, 1447,  187, 1229
5503, 1157, 1320, 1466, 1321
5504, 1022,  675,  952,  676
5505, 1157, 1230, 1321, 1466
5506, 1579,  693,  147,  692
5507, 1451, 1314,  193, 1316
5508, 1600,  137,  691,   31
5509, 1476, 1297, 1475, 1452
5510, 1589,  193,  180,  189
5511, 1092,  574, 1398,  573
5512, 1589,  168, 1370, 1150
5513, 1404,  135,  158,  188
5514, 1513,  168,  148,  157
5515, 1552,  154,  152,  128
5516, 1374, 1380, 1379, 1228
5517, 1589,  180, 1370,  168
5518, 1314,  180, 1589,  193
5519, 1406, 1325, 1541,  621
5520, 1588, 1549,  680,  679
5521, 1540, 1379,  682,  651
5522, 1592,  130,  160,  186
5523, 1404, 1405, 1298,  188
5524, 1297,  981, 1419, 1296
5525, 1247, 1298,  968, 1150
5526,   33,  693,  147,  139
5527, 1243, 1327, 1439, 1224
5528, 1600,  150,  149,  138
5529,  139, 1580,  694, 1579
5530, 1421,  173, 1298, 1405
5531, 1404, 1405,  188,  158
5532, 1016, 1410, 1411,  338
5533, 1599, 1580,  139, 1546
5534, 1260, 1491, 1537,  303
5535, 1016,  338, 1411,  353
5536, 1280,  923, 1302, 1285
5537,  681,  130,  160, 1592
5538, 1548,  178,  154,  186
5539, 1446,  170,  177,  152
5540, 1016, 1554,  330,  339
5541, 1016, 1554, 1014,  330
5542, 1066, 1408, 1330, 1106
5543, 1444,  180, 1314,  181
5544, 1400,  665,  141,  695
5545, 1269,  583,  582,  552
5546, 1203, 1107, 1204, 1367
5547, 1371, 1400, 1399, 1100
5548, 1569, 1409, 1539,  404
5549,  672, 1419, 1405, 1421
5550, 1352,  551,  581,  550
5551, 1457, 1546, 1503, 1545
5552,  374, 1535, 1536, 1534
5553, 1539, 1409,  373,  404
5554,  167,  671,  158, 1405
5555, 1209, 1050, 1213, 1013
5556, 1539,  373, 1409, 1534
5557,  922, 1253, 1325, 1255
5558, 1400,  132,  153,  141
5559, 1599,  695,  141,  140
5560, 1232, 1216, 1594, 1542
5561, 1444,  180,  181,  169
5562, 1468, 1162, 1548, 1380
5563, 1398, 1399, 1496,  604
5564, 1459, 1461,  632,  663
5565, 1177,  542,  543,  573
5566, 1398,  605, 1397,  604
5567, 1166, 1287, 1288,  881
5568, 1186,  647,  954,  646
5569, 1163, 1578, 1172, 1598
5570, 1316,  193,  197,  192
5571,  665, 1100, 1595,  666
5572, 1242,  637, 1440,  668
5573, 1540, 1284,  651, 1216
5574, 1260,  381, 1537, 1470
5575, 1562,  143,   13,  162
5576, 1284, 1541, 1379,  652
5577,  975, 1471,  578, 1326
5578, 1406, 1284,  621, 1541
5579, 1585,  195,  151,  177
5580, 1284, 1216, 1542,  620
5581, 1237, 1268, 1153, 1052
5582,  952, 1480, 1023, 1022
5583, 1023,  151,  198,  125
5584, 1129, 1014, 1491,  337
5585,  162,  125, 1562,  198
5586, 1425, 1426, 1538, 1424
5587, 1235,  195,  191,  198
5588,    9,  669,  134,  135
5589, 1229,  190,  170,  178
5590, 1548,  174,  178,  163
5591, 1377,  979, 1228, 1379
5592, 1596, 1380, 1548,  163
5593, 1570, 1257, 1256,  472
5594,  972, 1470,  381,  412
5595,  301, 1474,  292,  382
5596,  444, 1268, 1153, 1237
5597, 1109, 1229, 1162,  190
5598, 1585,  195,  198,  151
5599, 1506, 1507, 1480,  127
5600, 1341,  998, 1338,  612
5601, 1371, 1397, 1402, 1100
5602, 1541,  653,  979,  652
5603,  973,  971,  413,  444
5604,  962,  556,  557,  587
5605, 1304, 1303, 1305,  595
5606, 1201, 1339, 1353, 1196
5607,  968,  191,  179,  173
5608, 1242, 1402, 1478,  637
5609, 1395, 1556, 1358,  627
5610, 1298,  173,  179,  188
5611, 1179,  908, 1451, 1148
5612, 1431,  668, 1440,  669
5613, 1451,  197,  193,  200
5614,  969,  193,  189,  200
5615,  922, 1261,  977, 1324
5616, 1471, 1326, 1296,  609
5617, 1401, 1595, 1402,  148
5618, 1589,  168,  189,  180
5619,  683, 1596,   22,  145
5620, 1552,  154,  128,  129
5621, 1462, 1437, 1552,  152
5622, 1462,  170,  152,  154
5623,  900, 1556,  627,  658
5624, 1462,  178,  170,  154
5625, 1551, 1465,  617,  616
5626, 1117, 1556,  900,  658
5627, 1471,  578, 1326,  609
5628, 1447,  197,  187,  190
5629, 1394,  901,  900, 1510
5630, 1456,  902, 1571,  900
5631, 1480,  177,  127,  152
5632, 1246, 1370, 1513, 1150
5633, 1285, 1556, 1358, 1395
5634,  900,  660,  902,  659
5635,  146, 1509,  183, 1116
5636, 1316,  197,  196,  192
5637, 1285, 1117, 1556,  900
5638, 1543,  541,  602,  571
5639, 1314,  180,  193,  192
5640,  664, 1459, 1400,  634
5641,   31, 1600, 1583,  691
5642, 1202,  981, 1326, 1340
5643, 1449,  545,  546,  576
5644, 1401, 1513,  168,  148
5645, 1441, 1440, 1439,  639
5646,  541,  542, 1177,  572
5647, 1326, 1296,  610,  981
5648, 1174,  599,  568,  569
5649, 1230, 1551, 1438, 1321
5650, 1170, 1591, 1168,  631
5651, 1074, 1080,  876,  843
5652, 1571,  137, 1600,  149
5653, 1583,  901,  661,  660
5654, 1356,  481,  482,  512
5655, 1169, 1591, 1170, 1461
5656, 1177,  542,  512,  543
5657, 1377, 1376, 1228,  980
5658, 1193, 1240, 1107, 1367
5659, 1404, 1513, 1431,  157
5660, 1170,  633, 1459,  632
5661, 1365, 1241, 1208, 1262
5662, 1508,  498,  528,  497
5663, 1170, 1168,  600,  631
5664, 1533,  569,  538,  539
5665, 1404, 1295, 1513, 1298
5666, 1166, 1288, 1139, 1460
5667, 1459, 1139, 1455, 1445
5668, 1170, 1460,  633,  602
5669, 1449,  577,  576,  546
5670, 1228,  145,  683,  161
5671, 1514, 1380,  184, 1375
5672, 1597,  159,  165,  131
5673, 1207,  175,  159,  146
5674, 1116,  136, 1547,  183
5675,  980,  653, 1324,  654
5676, 1208, 1262,  591,  560
5677, 1151, 1126, 1555,  182
5678, 1207, 1115,  687, 1553
5679,  920,  980,  655, 1553
5680,  952,  645,  953,  646
5681, 1284, 1541,  652,  621
5682,  919, 1460, 1170,  602
5683,  977, 1324,  623,  654
5684, 1261,  623, 1324,  622
5685, 1325,  591, 1261,  622
5686, 1284,  652, 1379,  651
5687,  416, 1225,  386, 1188
5688, 1511, 1533,  569,  538
5689, 1354,  513,  543,  512
5690, 1587, 1556, 1502,  626
5691, 1586,  643, 1561,  642
5692, 1264, 1151, 1315, 1112
5693,  977,  654,  980, 1324
5694, 1522, 1416,  332,  308
5695, 1542,  619, 1594,  588
5696, 1299,  960, 1489,  527
5697, 1534,  373,  299,  315
5698, 1534,  320,  374,  315
5699, 1219,  467, 1472,  466
5700, 1409,  403,  372,  373
5701, 1536,  375,  320,  285
5702, 1535,  374, 1539, 1534
5703, 1535,  407, 1584, 1477
5704, 1407, 1060, 1539, 1535
5705,  372, 1034, 1035,  371
5706, 1526,  434,  403,  404
5707, 1148, 1109, 1451, 1447
5708, 1230, 1548, 1229, 1462
5709, 1446, 1448,  177,  187
5710, 1133, 1131, 1385, 1428
5711, 1262, 1261,  591,  592
5712, 1104, 1262, 1365,  561
5713, 1306, 1310, 1312, 1313
5714, 1441,  608, 1296,  639
5715, 1587, 1358,  627,  596
5716, 1599,  139,  694,   34
5717, 1314, 1315, 1503,  181
5718,  922,  921,  977, 1261
5719, 1433, 1554, 1482, 1504
5720, 1490,  494, 1575,  525
5721, 1396, 1279,  987, 1187
5722,  900, 1510,  628, 1395
5723, 1451,  187, 1447,  197
5724, 1262, 1208, 1261, 1253
5725, 1512, 1168, 1590,  630
5726,  682, 1596,   22,  683
5727,  989, 1582, 1187, 1189
5728, 1588,  130,  186,  129
5729, 1596, 1379,  683,  682
5730, 1232, 1542, 1284, 1216
5731, 1542,  588, 1594,  962
5732, 1482, 1030, 1029, 1433
5733, 1160,  398,  429,  428
5734, 1516, 1009,  364, 1463
5735, 1009,  395,  364,  365
5736, 1516, 1518,  297,  363
5737, 1381, 1154, 1009, 1011
5738, 1407, 1535, 1539, 1534
5739, 1208,  591, 1325,  590
5740, 1365, 1262,  560,  561
5741, 1506,  144,   17,  677
5742, 1292, 1291,  503,  502
5743, 1163, 1593, 1598, 1510
5744, 1163, 1361, 1593, 1359
5745, 1325,  622, 1261, 1324
5746, 1272, 1366, 1333,  487
5747, 1517,  517,  516,  486
5748, 1232, 1233, 1466, 1216
5749,  945, 1221, 1254, 1576
5750, 1218, 1301, 1300, 1527
5751, 1310,  853, 1308, 1306
5752, 1095, 1287, 1079, 1176
5753, 1341, 1352,  582,  581
5754, 1164, 1395, 1163, 1510
5755, 1335,  425, 1515,  456
5756, 1416, 1254, 1331,  324
5757, 1530,  394, 1564,  395
5758, 1203,  975,  547,  548
5759, 1204,  549,  518, 1368
5760, 1218, 1472, 1520, 1219
5761, 1534,  374,  320, 1536
5762, 1060, 1410, 1015, 1070
5763, 1521, 1034, 1522, 1035
5764, 1442, 1415, 1332, 1416
5765, 1527,  465, 1520,  496
5766,  990, 1250, 1573, 1225
5767, 1476, 1561, 1452, 1475
5768, 1519,  307, 1188,  295
5769, 1097, 1078,  829, 1350
5770,  357, 1195,  296,  287
5771, 1059, 1387, 1143, 1125
5772, 1599,  156, 1546,  139
5773, 1265, 1523, 1582, 1195
5774, 1342,  360,  391,  390
5775,  288, 1195,  296,  358
5776,  866, 1031, 1429, 1256
5777, 1132,  440,  439,  409
5778, 1429, 1132,  889,  440
5779, 1070,  313,  377,  376
5780, 1134, 1016, 1411, 1483
5781,  893,  888, 1018, 1017
5782, 1087,  410,  409,  379
5783, 1363,   88,  378,  377
5784, 1455, 1546, 1599, 1443
5785, 1579,  139,  150,  147
5786, 1546,  150,  139,  156
5787, 1458, 1583, 1456, 1590
5788, 1117,  900,  659,  658
5789, 1401, 1595, 1400, 1100
5790, 1599,  153,  156,  140
5791, 1371, 1369, 1445, 1399
5792,  912, 1457, 1138, 1137
5793,  845,  843,  878, 1074
5794, 1169, 1170, 1591, 1168
5795, 1513, 1150, 1370,  168
5796, 1198,  592, 1262,  561
5797, 1071, 1359, 1304,  565
5798,  921, 1261,  593,  624
5799, 1481, 1304, 1305,  564
5800, 1207, 1553,  687,  159
5801, 1169, 1590, 1512, 1168
5802, 1198, 1261,  592,  593
5803, 1192,  926,  867, 1292
5804, 1234, 1297, 1475, 1476
5805,  920,  977,  624,  655
5806, 1466, 1216, 1217, 1594
5807, 1600,  138,  149,  137
5808, 1571,  137,  149,  136
5809, 1255, 1541, 1325, 1324
5810, 1232, 1594, 1319, 1252
5811,  908, 1451, 1314, 1589
5812, 1314, 1316, 1315,  192
5813,  859, 1337, 1347, 1475
5814, 1270,  584, 1043, 1184
5815, 1298, 1513,  157,  179
5816, 1148, 1109, 1316, 1451
5817, 1286, 1354, 1239, 1177
5818, 1242, 1402,  637,  668
5819,  601,  570,  600, 1167
5820, 1423,  484, 1453, 1517
5821, 1423, 1517, 1565,  484
5822, 1565, 1517, 1367,  516
5823, 1386, 1141, 1142, 1575
5824, 1076, 1351, 1350, 1492
5825, 1173, 1511, 1533, 1174
5826, 1144, 1492,  513,  514
5827, 1589, 1451, 1147,  908
5828,  907, 1094, 1371, 1099
5829, 1198, 1262,  592, 1261
5830, 1263, 1262, 1198, 1261
5831, 1362, 1288, 1176, 1543
5832, 1104, 1198, 1262,  561
5833, 1374, 1232, 1378, 1468
5834, 1541,  621, 1325,  622
5835, 1365, 1208,  559,  560
5836, 1544,  171, 1545, 1503
5837, 1591, 1458, 1581, 1461
5838, 1263, 1261, 1198,  921
5839, 1448, 1585, 1235, 1346
5840, 1166,  934, 1288, 1287
5841, 1593, 1395, 1359,  597
5842,  571, 1499,  510,  540
5843, 1282, 1283, 1116, 1117
5844, 1322, 1179, 1448, 1446
5845, 1198,  563, 1305,  594
5846, 1303,  921,  594,  625
5847, 1481, 1071,  564, 1292
5848, 1454, 1198,  562,  563
5849, 1108, 1133, 1196, 1352
5850, 1559,  171, 1544, 1315
5851, 1456, 1600,  902, 1583
5852, 1102, 1263, 1198, 1305
5853, 1282, 1207, 1509, 1555
5854, 1163, 1598, 1593, 1578
5855,  956, 1232, 1157,  995
5856, 1173, 1511, 1174, 1497
5857, 1579,  150,  138,  147
5858, 1375, 1162,  174,  196
5859,  325, 1504, 1554, 1473
5860, 1033, 1256,  502,  471
5861, 1218, 1527, 1215, 1528
5862, 1071, 1292, 1361,  565
5863, 1145, 1446, 1322, 1437
5864, 1038,  470, 1033,  501
5865, 1345,  536,  985,  505
5866, 1291, 1256, 1257,  503
5867,  985, 1290,  505,  504
5868,  867, 1292,  502, 1291
5869, 1049, 1191, 1053, 1258
5870, 1039, 1038, 1033,  501
5871, 1271,  490,  521,  520
5872, 1273, 1515,  457,  456
5873, 1242, 1243, 1440, 1478
5874, 1043,  553, 1493,  554
5875, 1133, 1012, 1270, 1493
5876, 1007, 1490, 1020, 1276
5877, 1444, 1401,  172, 1443
5878, 1297, 1295, 1405, 1298
5879,  912, 1503, 1314, 1315
5880, 1200,  580, 1340,  579
5881, 1444, 1370, 1589,  180
5882, 1314, 1316,  192,  193
5883, 1599, 1443,  156,  153
5884, 1098, 1242, 1397, 1478
5885, 1044, 1203, 1200,  975
5886, 1557,  962,  556,  557
5887, 1167, 1170, 1168,  600
5888, 1068, 1128, 1015, 1069
5889, 1365, 1208,  560, 1262
5890, 1567, 1036,  402,  401
5891, 1110, 1159,  942, 1274
5892, 1373,  460, 1274, 1391
5893, 1204, 1107, 1366, 1367
5894, 1154, 1530, 1564,  395
5895, 1175, 1301, 1142, 1042
5896, 1372, 1464, 1143,  451
5897,  389,  388, 1523, 1195
5898, 1582,  388, 1523,  419
5899, 1309, 1311,  393,  394
5900, 1511,  569, 1174,  568
5901, 1082, 1090,  478,  509
5902, 1179, 1147, 1448, 1451
5903,  975, 1471, 1327,  577
5904, 1431,  669,  134,  668
5905, 1431,  157,  134,  135
5906, 1362, 1543,  541,  572
5907, 1269,  582, 1422, 1341
5908, 1404,  188, 1298,  157
5909, 1513,  148, 1431,  157
5910, 1441,  639, 1439,  608
5911,  866, 1212, 1257, 1256
5912, 1519, 1181,  307,  310
5913,  848,  983, 1199, 1044
5914, 1087,  889, 1132,  409
5915, 1517, 1193, 1367, 1240
5916, 1234, 1235,  859,  857
5917, 1225,  386,  447,  416
5918, 1573,  415, 1225,  446
5919,  972,  973,  971,  413
5920, 1268,  444, 1153,  475
5921, 1013, 1473, 1491, 1554
5922, 1454, 1198,  563, 1305
5923, 1049, 1152, 1268, 1153
5924, 1257, 1256,  472,  503
5925,  985, 1578,  535,  536
5926, 1220, 1221, 1223, 1254
5927, 1299,  528, 1301, 1508
5928, 1028, 1136, 1498, 1025
5929, 1248, 1578,  536,  567
5930, 1299, 1301, 1175, 1508
5931, 1520, 1528,  466,  465
5932, 1060, 1584, 1070, 1015
5933, 1376, 1430, 1126, 1514
5934, 1060, 1061, 1477, 1214
5935, 1024, 1136, 1027, 1483
5936,  918,  917, 1226, 1075
5937, 1318,  538,  537,  507
5938, 1258, 1450,  442,  473
5939, 1257,  473, 1290,  504
5940, 1291, 1257, 1290,  504
5941, 1293, 1361,  566, 1578
5942, 1029, 1016, 1483, 1482
5943, 1184, 1185, 1012, 1001
5944, 1497, 1174, 1598,  568
5945, 1258,  442, 1259,  443
5946, 1302, 1304, 1359, 1358
5947, 1593, 1598,  598,  567
5948, 1361,  566, 1359,  565
5949,  627,  900, 1395, 1556
5950,  900, 1395,  628,  627
5951, 1587,  627, 1556,  626
5952, 1593,  598, 1510,  597
5953, 1283, 1456, 1571, 1285
5954, 1304,  595, 1305,  564
5955, 1344,  985, 1345, 1289
5956, 1426, 1188, 1479, 1519
5957, 1191, 1258, 1344, 1290
5958,  917, 1361, 1293, 1578
5959, 1152,  475, 1153,  476
5960, 1268, 1152, 1344,  475
5961, 1450, 1570,  472, 1257
5962,  840, 1067,  951,  895
5963, 1172, 1174, 1512, 1598
5964,  389,  358, 1195, 1265
5965, 1312, 1125,  391, 1572
5966, 1323, 1342, 1265,  358
5967, 1323,  289,  359,   69
5968,   69, 1323,  358,  359
5969,  358, 1323,  288, 1195
5970, 1195, 1323,  288,  302
5971, 1479,  416, 1188, 1225
5972, 1192, 1290, 1291, 1257
5973,  988, 1211, 1425, 1251
5974, 1180, 1188, 1181,  307
5975, 1318,  506, 1152,  507
5976, 1047, 1251, 1250, 1153
5977, 1424, 1504, 1382, 1181
5978, 1125, 1312, 1342, 1059
5979, 1423, 1453,  484,  483
5980, 1388,  451, 1143,  452
5981, 1308, 1311, 1335, 1334
5982,  854,  453,  856,  454
5983, 1424, 1538, 1504, 1181
5984, 1125, 1523,  390,  421
5985, 1125,  390, 1342,  391
5986, 1143, 1523,  421,  420
5987, 1143, 1464,  420,  451
5988, 1308, 1310, 1311, 1334
5989, 1131, 1349, 1271,  519
5990,  895, 1140, 1218, 1142
5991, 1064, 1066, 1330, 1106
5992,  937, 1577, 1574, 1389
5993, 1390, 1389, 1574,  493
5994, 1222, 1223, 1563,  345
5995, 1331, 1498,  341, 1254
5996, 1386, 1141, 1575, 1490
5997, 1403, 1435,  343,  345
5998, 1237,  413, 1127,  414
5999, 1251, 1237, 1250, 1153
6000, 1479, 1519,  385,  384
6001, 1237,  414, 1573,  445
6002, 1479, 1474,  293,  383
6003, 1026, 1025, 1051, 1027
6004, 1016, 1554,  339, 1482
6005, 1133, 1270, 1269, 1488
6006,  953,  861,  996, 1178
6007, 1339, 1586,  611,  612
6008, 1208, 1236, 1241, 1364
6009, 1476, 1234, 1421, 1235
6010, 1200, 1326,  579, 1340
6011, 1465,  586, 1467,  617
6012, 1277,  587, 1467,  586
6013,  961,  589, 1542,  588
6014, 1594,  587,  962,  588
6015, 1467,  587, 1594,  618
6016, 1465, 1467, 1217,  617
6017, 1406,  589,  961, 1364
6018, 1410, 1070, 1536, 1566
6019, 1068, 1132, 1069,  408
6020, 1060, 1477, 1535, 1584
6021,  858, 1346, 1179,  857
6022, 1210, 1554, 1016, 1482
6023,  866, 1031, 1256, 1033
6024, 1227, 1159,  429, 1274
6025, 1428, 1427,  523,  522
6026, 1463,  305,  280,  279
6027, 1524, 1574,  462,  463
6028, 1577, 1574, 1389,  462
6029, 1389,  462, 1574,  493
6030, 1390, 1391, 1389,  492
6031, 1223, 1403,  354,  345
6032,  858, 1346,  859,  862
6033, 1178,  996,  952,  954
6034, 1329, 1521, 1409, 1034
6035, 1276, 1428, 1427,  523
6036, 1158, 1515,  426,  457
6037, 1043,  585, 1184,  584
6038, 1277, 1467, 1465,  586
6039,  492,  523, 1390, 1427
6040, 1270, 1184,  583,  584
6041, 1270, 1043,  553, 1493
6042, 1548, 1229, 1462,  178
6043, 1270, 1269, 1488,  552
6044, 1109, 1316, 1451,  197
6045, 1451,  969, 1448,  200
6046, 1378, 1540, 1216, 1284
6047, 1174, 1168, 1512,  599
6048, 1451, 1316,  193,  197
6049, 1298,  188, 1405,  173
6050, 1320, 1465, 1277, 1467
6051,  941, 1413, 1275, 1274
6052, 1275, 1391, 1274,  461
6053, 1275, 1389, 1391,  461
6054, 1391,  461, 1389,  492
6055,  505, 1344,  985, 1345
6056,  897, 1026, 1028, 1220
6057, 1183, 1307, 1154, 1530
6058, 1203,  516, 1205, 1565
6059,  479,  448,  509, 1082
6060,  989, 1582, 1189, 1195
6061, 1083,  480, 1393, 1392
6062, 1582, 1195,  388,  387
6063, 1436, 1384, 1435, 1494
6064, 1345,  536, 1248, 1578
6065, 1425, 1251, 1127, 1479
6066, 1030, 1027, 1051, 1482
6067, 1279, 1225,  417,  447
6068, 1189, 1195, 1180, 1058
6069, 1073, 1226, 1249, 1248
6070, 1318, 1152, 1089,  507
6071, 1250, 1225,  447,  446
6072, 1026, 1051, 1025, 1403
6073, 1550, 1551, 1217,  648
6074, 1550, 1186,  647,  954
6075, 1467,  618, 1217,  617
6076, 1216,  618, 1594,  619
6077, 1540,  650, 1216,  651
6078, 1375, 1112,  196, 1126
6079, 1337, 1338, 1347, 1586
6080, 1551, 1465,  616, 1185
6081, 1321, 1186, 1184, 1185
6082, 1466, 1549, 1216, 1233
6083, 1249, 1152, 1345, 1344
6084, 1109,  190, 1162,  196
6085, 1015, 1016, 1209, 1013
6086, 1152, 1344,  475,  506
6087, 1089,  476, 1152, 1153
6088, 1345, 1344, 1152,  506
6089, 1079, 1081, 1082, 1499
6090, 1230, 1549, 1233, 1548
6091, 1509, 1207,  146,  175
6092, 1282, 1281,  923, 1553
6093, 1115, 1556,  658,  657
6094, 1117,  689, 1115,  658
6095, 1509, 1555,  175,  182
6096, 1115, 1553,  656,  687
6097,  922, 1253, 1263, 1261
6098, 1446,  152, 1462,  170
6099, 1109, 1447, 1229,  190
6100, 1162, 1229,  178,  190
6101, 1316,  196, 1109, 1112
6102, 1466, 1217, 1467, 1594
6103, 1252, 1406,  961, 1364
6104, 1112, 1315,  192,  185
6105, 1380, 1228, 1514,  194
6106, 1112,  196, 1126,  199
6107, 1312, 1120, 1059, 1125
6108, 1188, 1180,  309,  307
6109,  322, 1194, 1384, 1383
6110, 1251, 1127, 1479, 1573
6111, 1302, 1587,  923, 1303
6112, 1201, 1338, 1341,  861
6113,  865, 1038, 1033,  867
6114, 1015, 1214,  948, 1060
6115, 1407, 1536, 1535, 1534
6116, 1599,  694, 1580,  695
6117, 1282, 1283, 1430, 1509
6118, 1010, 1432, 1227,  398
6119, 1563, 1576, 1463,  352
6120, 1563, 1576,  352,  349
6121, 1027, 1483,  346, 1482
6122, 1505, 1529, 1010,  366
6123, 1275, 1577,  461,  430
6124, 1415, 1532,  400, 1036
6125, 1532, 1036,  401,  400
6126, 1577, 1389,  461,  462
6127, 1412,  941,  936, 1182
6128, 1418, 1254,  331, 1576
6129, 1160, 1010,  398,  397
6130, 1140, 1525, 1560, 1524
6131, 1174,  569, 1533,  600
6132, 1366, 1517,  486,  517
6133, 1543, 1460,  919,  602
6134, 1073,  879,  882,  880
6135, 1397, 1100,  635,  636
6136, 1401,  153,  155,  172
6137, 1314,  192, 1315,  181
6138, 1166, 1173, 1174, 1172
6139, 1375, 1380,  174, 1162
6140, 1535, 1477,  406,  407
6141, 1046, 1047,  992, 1048
6142, 1584, 1477,  407,  438
6143, 1485,  438, 1584,  439
6144, 1068,  408, 1070,  377
6145, 1123, 1484, 1219,  436
6146, 1407, 1410, 1408, 1411
6147, 1063, 1569, 1219, 1528
6148,  318, 1408,  348,  338
6149,  438, 1484,  468, 1485
6150, 1330, 1408, 1521,  317
6151, 1597,  194,  166,  131
6152, 1597,  980, 1553,  686
6153,  685,  684,  166, 1597
6154, 1514, 1597,  980, 1553
6155, 1252, 1542, 1594,  962
6156,  980, 1553,  686,  655
6157,  920, 1377,  977,  980
6158, 1380,  184,  164,  194
6159, 1225,  386, 1188, 1187
6160, 1479,  385, 1188,  416
6161,   66,  356,  287,  286
6162, 1382, 1383, 1058, 1180
6163,  302, 1195, 1323, 1495
6164, 1187, 1225,  386,  417
6165, 1218, 1300, 1142, 1140
6166, 1479, 1519, 1188,  385
6167, 1466, 1157, 1230, 1233
6168, 1094, 1091, 1098, 1093
6169, 1595, 1400,  132,  155
6170, 1589,  969,  189, 1150
6171, 1503, 1457, 1138,  912
6172, 1369, 1401, 1444, 1443
6173,  148, 1402,  142,  133
6174, 1451, 1589,  969,  193
6175, 1476,  198, 1562, 1023
6176, 1326,  579, 1340,  610
6177, 1343,  497, 1472,  498
6178, 1041, 1484,  468,  467
6179, 1520,  466, 1472,  497
6180, 1041,  468, 1038,  499
6181,  925, 1105,  928,  929
6182, 1063, 1569, 1409, 1539
6183, 1219, 1484,  467,  436
6184, 1123,  437, 1477, 1484
6185,  979,  980,  653, 1324
6186, 1255,  979, 1541, 1324
6187, 1228,  979,  683, 1379
6188, 1228,  980, 1597,  684
6189, 1228,  979,  684,  683
6190,  979, 1379,  652,  683
6191, 1315,  171, 1503,  181
6192, 1559, 1547,  171,  176
6193, 1112, 1315, 1316,  192
6194,  174,  184,  164, 1380
6195, 1545, 1583, 1456, 1458
6196, 1198,  921,  593,  594
6197, 1283, 1571, 1547, 1116
6198,  889, 1213, 1053, 1086
6199, 1268,  973, 1237,  444
6200, 1128, 1014, 1129, 1363
6201, 1016,  339, 1483, 1482
6202, 1429,  441,  889, 1570
6203, 1429, 1256,  471,  472
6204, 1502,  657, 1115,  656
6205, 1303, 1502,  625,  626
6206, 1587,  626, 1303,  595
6207, 1395, 1359,  597,  596
6208, 1587, 1304,  596,  595
6209,  900,  901,  629, 1510
6210, 1302, 1304, 1303, 1305
6211, 1394, 1590, 1169, 1458
6212,  900, 1510,  629,  628
6213, 1169, 1591, 1590, 1168
6214, 1239, 1449,  575,  544
6215, 1096, 1245, 1449, 1224
6216, 1398,  604, 1496,  573
6217, 1445, 1496, 1399, 1460
6218, 1347,  998,  997, 1338
6219, 1460, 1445, 1496, 1288
6220, 1369, 1246, 1370, 1401
6221, 1187, 1582,  387, 1189
6222, 1286, 1077, 1078, 1360
6223, 1464,  419, 1523,  420
6224, 1143,  420, 1464, 1523
6225, 1530, 1515,  425,  426
6226, 1311, 1335, 1334,  424
6227, 1572,  855, 1125,  422
6228,  854,  454, 1334,  455
6229, 1154, 1515, 1530,  426
6230, 1200, 1353, 1340,  580
6231, 1206,  975, 1449, 1205
6232, 1599,  153, 1400, 1443
6233,  998,  953, 1341,  861
6234, 1201, 1200, 1353, 1340
6235, 1448,  191, 1235,  195
6236, 1145, 1229, 1446, 1462
6237, 1451,  969,  200,  193
6238, 1202, 1294, 1326,  981
6239, 1446, 1480,  152,  177
6240, 1375, 1126,  196,  184
6241, 1507,  152,  127,  144
6242, 1023,  151,  125,  126
6243, 1145, 1446, 1229, 1447
6244,  421, 1125, 1523, 1143
6245, 1143,  421, 1387,  452
6246, 1055, 1143,  871, 1464
6247, 1388, 1143, 1387,  452
6248, 1313, 1434, 1312, 1306
6249,  483,  514, 1423, 1144
6250, 1436, 1495, 1384, 1494
6251, 1312, 1120, 1436, 1059
6252,  988, 1426, 1424, 1058
6253, 1306, 1309, 1434, 1307
6254, 1051, 1383,  334,  343
6255, 1482, 1057, 1504, 1382
6256, 1382, 1504,  323, 1181
6257, 1381, 1463, 1009, 1563
6258, 1333,  455,  854, 1334
6259, 1555, 1597, 1553,  159
6260, 1509, 1282, 1116, 1207
6261, 1281,  920, 1553,  980
6262, 1514,  165, 1126,  184
6263, 1430, 1514, 1553, 1555
6264, 1597,  684,  166, 1228
6265, 1597,  685,  980,  686
6266,   26,  686,  131,  159
6267, 1548, 1162, 1229,  178
6268, 1401, 1402, 1513,  148
6269, 1599, 1580, 1400,  695
6270, 1258, 1450,  473, 1290
6271, 1580,  664, 1400,  695
6272, 1496,  604, 1399,  603
6273, 1595,  133,  155,  132
6274,  848,  850, 1196,  892
6275,  854, 1453,  855,  453
6276, 1081, 1082, 1090, 1084
6277,  853, 1308, 1335, 1334
6278,  855, 1387,  422,  453
6279, 1394, 1510, 1512,  901
6280, 1369, 1444, 1401, 1370
6281,  971, 1258,  443, 1268
6282, 1581, 1579,  693,  694
6283, 1397, 1399,  635, 1100
6284, 1459, 1399,  634,  603
6285, 1459, 1460,  603,  633
6286, 1258, 1450, 1259,  442
6287, 1237, 1127, 1573,  414
6288,  972,  412,  381,  382
6289, 1118, 1436, 1435, 1434
6290, 1086, 1259,  410,  411
6291, 1537, 1474,  292,  304
6292, 1320, 1277, 1017, 1018
6293,  859, 1476, 1235, 1234
6294, 1355,  545, 1449,  544
6295, 1337, 1475,  981, 1586
6296, 1296, 1295,  639, 1419
6297,  908, 1314, 1451, 1316
6298, 1156, 1150,  968,  969
6299, 1369,  912, 1444, 1370
6300, 1313,  391,  360,  361
6301, 1212, 1570, 1213, 1053
6302, 1494, 1434, 1313, 1518
6303, 1558, 1342, 1436, 1495
6304,  987, 1084, 1279, 1396
6305, 1436, 1059, 1265, 1342
6306, 1453,  855,  453, 1387
6307,  854,  856, 1334,  454
6308,  853, 1334,  854,  856
6309,  825,  827,  937,  824
6310, 1055, 1582, 1523, 1464
6311,  856, 1310,  423,  422
6312, 1572, 1310,  422,  391
6313,  856, 1310, 1334,  423
6314, 1471,  608, 1327,  577
6315, 1404, 1440, 1513, 1295
6316,  975, 1471,  577,  578
6317, 1354, 1360, 1286, 1097
6318, 1096, 1097, 1238, 1239
6319,  849, 1001,  850,  892
6320, 1337, 1339, 1586, 1340
6321,  546, 1205,  515,  545
6322, 1439, 1440,  638,  639
6323, 1425,  973, 1052,  970
6324, 1450,  441, 1259,  442
6325,  971, 1470,  412, 1259
6326, 1260,  291,  381,  380
6327,  889,  410, 1259,  441
6328, 1057, 1482, 1051, 1382
6329, 1002, 1230, 1145, 1437
6330, 1184,  953,  614,  615
6331, 1585, 1235,  198,  195
6332, 1090, 1047, 1250, 1089
6333,  857,  968, 1234, 1235
6334, 1258,  474, 1268, 1344
6335, 1203, 1367,  517,  516
6336, 1422, 1184,  953,  614
6337, 1585, 1480,  177,  151
6338, 1452,  981, 1586,  642
6339, 1586, 1338,  643,  612
6340, 1297, 1295, 1296, 1419
6341,  997,  643, 1561, 1338
6342, 1417,  324, 1416,  306
6343, 1406,  961,  589, 1542
6344, 1253, 1325, 1406, 1364
6345, 1255, 1541, 1406, 1325
6346, 1096, 1224, 1243, 1245
6347,  999, 1146, 1101, 1148
6348, 1406, 1364,  590,  589
6349, 1414,  400, 1532,  431
6350, 1526, 1528,  434,  435
6351, 1526, 1528, 1568,  434
6352, 1568,  434, 1528,  465
6353, 1525, 1567,  432, 1532
6354,  939,  936, 1182, 1332
6355, 1527,  465, 1568, 1528
6356, 1501,  656, 1115, 1553
6357,  921,  977, 1261,  624
6358, 1060, 1214,  948, 1061
6359,  299, 1534, 1521,  373
6360, 1034, 1036,  371,  402
6361, 1442, 1416, 1522,  308
6362, 1407,  348, 1536, 1534
6363, 1539, 1534,  374,  373
6364, 1034,  372, 1409,  403
6365, 1521, 1329, 1330, 1034
6366, 1535, 1123,  406, 1477
6367, 1111,  947, 1110, 1158
6368, 1442, 1486,  369, 1415
6369, 1017, 1277, 1043, 1019
6370, 1229, 1004, 1468, 1230
6371, 1599, 1400,  141,  695
6372, 1438,  954, 1469, 1186
6373, 1437, 1480, 1507,  152
6374, 1437,  954, 1507, 1480
6375,  862, 1347,  859,  861
6376, 1422,  583, 1184,  614
6377, 1203,  547,  975, 1205
6378, 1113, 1158,  458,  457
6379, 1442, 1522, 1035,  340
6380, 1204,  517, 1366,  518
6381, 1321, 1184, 1186, 1469
6382, 1270, 1184, 1422,  583
6383,  988, 1057, 1058, 1424
6384, 1373, 1427, 1385,  490
6385, 1113,  458, 1158, 1159
6386, 1158, 1154, 1011,  426
6387, 1390, 1389,  493,  492
6388, 1488,  551, 1352,  520
6389,  390, 1342, 1265, 1125
6390,  389, 1342, 1265,  390
6391, 1522,  317, 1035,  340
6392, 1558, 1323, 1495,  311
6393, 1265, 1323, 1495, 1342
6394, 1531,  282, 1486,  368
6395, 1558, 1323,  289,  359
6396,  358, 1342, 1265,  389
6397, 1237,  445, 1250, 1153
6398, 1250, 1153,  445,  476
6399, 1279,  447, 1250, 1225
6400, 1089, 1153, 1250,  476
6401, 1279,  478, 1250,  447
6402, 1250,  478, 1090,  477
6403, 1251, 1573, 1237, 1127
6404, 1053,  889, 1259, 1570
6405, 1060, 1584, 1535, 1070
6406,  329, 1363,  300, 1014
6407, 1566,  329, 1363,  313
6408, 1536, 1566, 1070,  313
6409, 1064, 1411, 1106, 1483
6410, 1015, 1016, 1014, 1566
6411, 1416, 1412, 1486, 1415
6412, 1467, 1594,  587,  962
6413, 1467, 1217,  618, 1594
6414, 1319, 1594, 1467,  962
6415, 1451, 1448, 1447,  187
6416, 1432, 1531, 1486,  368
6417, 1505, 1418, 1529,  281
6418,  941, 1275, 1414, 1577
6419,  398, 1010, 1160, 1227
6420,  941, 1227, 1413, 1274
6421,  823, 1274, 1275, 1391
6422, 1531,  298,   78, 1529
6423, 1529, 1531,  368,   78
6424, 1442, 1416, 1486, 1415
6425, 1415,  369, 1036,  400
6426,  977,  623, 1261,  624
6427,  977, 1261,  623, 1324
6428, 1377,  977,  980, 1324
6429, 1553, 1514, 1281,  980
6430,  920, 1553,  655,  656
6431, 1159, 1274,  460,  429
6432, 1006, 1428, 1019, 1493
6433,  942, 1159, 1227, 1274
6434, 1009, 1463,  365,  364
6435, 1227, 1413,  429,  398
6436, 1515, 1158, 1273,  457
6437, 1159,  428, 1160,  429
6438, 1373, 1159, 1274,  460
6439,  881, 1499,  570, 1533
6440, 1240, 1351, 1517, 1193
6441, 1495,  322, 1194, 1384
6442, 1180, 1383,  322,  326
6443, 1265,  358, 1195, 1323
6444, 1384, 1495,  322,  333
6445, 1495, 1323,  302,  311
6446, 1055, 1143, 1464, 1523
6447, 1384, 1435, 1494,  333
6448, 1558, 1495, 1323, 1342
6449,  195, 1448, 1585, 1235
6450, 1347,  996, 1023,  997
6451, 1322, 1437, 1446, 1480
6452,  678,  677,  144, 1507
6453, 1535,  375, 1536,  376
6454, 1410, 1566, 1536,  319
6455, 1536, 1566,  313,  319
6456, 1215, 1568, 1328, 1526
6457, 1410, 1536,  348,  319
6458,  348,  320, 1536, 1534
6459, 1041, 1484, 1038,  468
6460, 1032, 1038, 1041, 1484
6461, 1343, 1042, 1301, 1508
6462, 1038, 1485,  469,  468
6463, 1008, 1385,  818, 1006
6464, 1105, 1365, 1508,  529
6465,  561, 1336, 1105, 1104
6466, 1485, 1038,  470, 1033
6467, 1427,  491, 1391,  492
6468, 1428,  521, 1427,  522
6469, 1385,  490, 1427,  521
6470,  491, 1391, 1373, 1427
6471, 1487,  552, 1488,  521
6472, 1408, 1534,  318,  348
6473, 1521,  318, 1408, 1534
6474, 1043, 1184,  585, 1185
6475, 1277, 1043, 1019,  555
6476, 1043,  586, 1465,  585
6477, 1487, 1133, 1270, 1493
6478, 1376, 1375, 1380, 1514
6479,  875,  870,  877,  874
6480, 1267, 1422, 1270, 1184
6481, 1551, 1217,  648,  617
6482, 1542, 1255, 1284, 1406
6483, 1156, 1150, 1589, 1370
6484, 1417, 1416, 1486,  306
6485, 1412, 1432, 1413, 1227
6486, 1166, 1288, 1460,  919
6487, 1406, 1364, 1325,  590
6488,  961,  588, 1542,  962
6489,  961,  962,  557,  588
6490, 1571, 1285, 1117, 1283
6491, 1236,  961,  960, 1364
6492, 1172, 1510, 1598, 1512
6493, 1020, 1018, 1017, 1277
6494, 1092, 1398,  574, 1093
6495,  960,  961,  962,  557
6496,  525, 1489,  526, 1575
6497, 1006, 1017, 1493, 1019
6498, 1198,  921,  594, 1305
6499, 1216, 1594, 1466, 1232
6500, 1165, 1164, 1394, 1285
6501,  922,  920,  977,  921
6502, 1198,  593,  921, 1261
6503, 1496,  603, 1399, 1460
6504, 1496,  603, 1460,  572
6505, 1098, 1397, 1398, 1093
6506, 1362, 1496, 1460,  572
6507,  919,  602, 1170,  601
6508, 1166, 1172, 1174, 1168
6509, 1444,  912, 1589, 1370
6510, 1511, 1497, 1248,  568
6511, 1174,  600, 1168,  599
6512, 1598, 1512, 1510,  598
6513, 1457, 1455, 1443, 1546
6514,  907,  912, 1370, 1156
6515, 1098, 1239, 1245, 1093
6516, 1114, 1117,  689, 1115
6517, 1163, 1395, 1358, 1359
6518, 1593, 1598,  567, 1578
6519, 1546, 1443,  169,  156
6520, 1600, 1583,  691,  902
6521, 1545,  169, 1503,  171
6522, 1559, 1545,  171, 1547
6523, 1545, 1547,  149,  171
6524, 1394, 1169, 1590, 1512
6525,  147, 1579,  692,  138
6526, 1303,  921, 1305,  594
6527, 1501,  921, 1303,  625
6528, 1303,  594, 1305,  595
6529, 1017, 1012, 1493, 1043
6530, 1514, 1555,  165, 1597
6531,  920,  624,  921,  625
6532, 1302, 1587, 1304, 1358
6533, 1071, 1361, 1163, 1359
6534, 1290, 1191, 1450, 1257
6535,  501, 1039,  502, 1033
6536,  811,  884,  845,  878
6537, 1292,  534, 1293,  565
6538, 1071, 1304,  564,  565
6539, 1017, 1321, 1001, 1185
6540, 1293, 1361,  565,  566
6541, 1293,  535, 1578,  566
6542, 1593, 1359,  566,  597
6543, 1287, 1288, 1543, 1176
6544, 1172, 1512, 1174, 1168
6545, 1512, 1168,  630,  599
6546,  900,  629,  901,  660
6547, 1510, 1395,  597,  628
6548, 1163, 1593, 1395, 1359
6549,  912, 1370, 1156, 1589
6550, 1590,  901,  630,  661
6551, 1213, 1087,  889, 1132
6552, 1124,  837, 1054, 1030
6553, 1068, 1363,  378,  377
6554, 1016, 1014, 1566,  336
6555, 1015, 1016, 1566, 1410
6556, 1129,  337, 1491,  290
6557, 1014, 1566,  336,  329
6558, 1014, 1566,  329, 1363
6559,  860,  862, 1145, 1179
6560, 1330, 1408,  317,  328
6561, 1442,  283, 1486,  308
6562, 1026, 1403, 1266, 1051
6563,  371,  314,  284, 1035
6564,   81,  371,  314,  284
6565, 1035, 1036,  370,  371
6566, 1442, 1332, 1522, 1416
6567, 1442, 1035, 1036,  370
6568, 1521, 1034, 1035,  372
6569, 1328, 1567, 1034, 1526
6570, 1320, 1319, 1467, 1277
6571, 1215, 1526, 1528, 1568
6572, 1051, 1025, 1403,  347
6573, 1040, 1041, 1343, 1472
6574,  936, 1532, 1524, 1577
6575, 1223,  354, 1025, 1498
6576,   79, 1486,  368,  369
6577, 1486,  369,   79,  283
6578, 1377,  979, 1324,  980
6579, 1126,  165, 1555,  182
6580,  923, 1303, 1501,  921
6581, 1214, 1031, 1485, 1069
6582, 1214, 1132, 1031, 1069
6583, 1429,  441, 1570,  472
6584, 1031,  439, 1485, 1069
6585, 1031, 1033, 1485,  470
6586, 1535, 1070, 1584,  407
6587, 1212, 1570, 1257, 1256
6588, 1260,  291, 1537,  381
6589, 1213, 1128, 1132, 1214
6590,  972,  971, 1470,  412
6591, 1470, 1259,  411,  412
6592, 1554, 1504,  325, 1482
6593,  866, 1213, 1212, 1429
6594, 1425,  972, 1474, 1127
6595,  972,  382, 1127,  413
6596, 1268, 1152,  475, 1153
6597, 1585,  177, 1448,  195
6598, 1023, 1476, 1235, 1347
6599,  857, 1235, 1448,  191
6600, 1451,  200, 1448,  187
6601, 1322, 1448, 1585,  177
6602, 1448,  969,  191,  200
6603, 1003, 1147, 1179,  908
6604, 1322,  177, 1585, 1480
6605, 1017, 1185, 1012, 1043
6606, 1223, 1025,  354, 1403
6607, 1223,  331, 1576,  349
6608, 1254, 1223,  331, 1576
6609, 1417, 1418,  331,  306
6610, 1064, 1106, 1331, 1136
6611, 1504, 1482,  335,  325
6612, 1382, 1051,  334,  335
6613, 1382,  326, 1181,  323
6614, 1473, 1504,  304,  325
6615, 1538, 1181,  310,  323
6616, 1538, 1473, 1504,  304
6617,  918, 1293,  917,  926
6618, 1011,  396, 1160,  427
6619, 1516,  352, 1518, 1563
6620, 1418, 1463, 1576,  305
6621, 1463,  280,   75,  279
6622,  946, 1009, 1463, 1505
6623, 1160,  396, 1010,  397
6624, 1227,  429, 1160,  398
6625,  368, 1432, 1415, 1486
6626, 1175, 1575, 1142, 1300
6627, 1524, 1577,  462, 1574
6628, 1215, 1527, 1560, 1568
6629, 1525, 1560,  463,  464
6630, 1450, 1259,  441, 1570
6631, 1450, 1570,  441,  472
6632, 1258, 1290,  473,  474
6633, 1212, 1570, 1450, 1257
6634, 1191, 1258, 1290, 1450
6635, 1069, 1214, 1015, 1584
6636, 1410, 1566,  319,  336
6637, 1032, 1485, 1038, 1484
6638, 1031, 1132, 1429,  440
6639, 1212, 1429, 1570, 1256
6640, 1213, 1570, 1429,  889
6641, 1016, 1410,  338,  336
6642, 1486, 1415,  368,  369
6643, 1532, 1332, 1415,  936
6644, 1408,  348,  338, 1410
6645,  917, 1578, 1163, 1361
6646, 1375, 1126, 1101, 1112
6647, 1112, 1316,  196,  192
6648, 1155,  908, 1148, 1316
6649, 1417, 1182, 1416, 1254
6650, 1109, 1162, 1112,  196
6651, 1151, 1112,  199,  185
6652, 1263, 1305, 1303,  921
6653,  967, 1231, 1376, 1101
6654, 1060, 1536, 1410, 1070
6655, 1214, 1485, 1584, 1069
6656, 1407, 1534, 1408,  348
6657, 1535, 1539,  374,  405
6658, 1016, 1410,  336, 1566
6659, 1068,  409, 1087, 1132
6660, 1491, 1554,  325,  330
6661, 1491,  337, 1014,  330
6662, 1128, 1363, 1129, 1087
6663, 1554,  339, 1482,  325
6664, 1016,  330, 1014,  336
6665, 1053, 1450, 1570, 1259
6666, 1161, 1151, 1559, 1315
6667, 1282, 1553, 1501, 1115
6668, 1151, 1509,  176,  182
6669, 1556,  900, 1395, 1285
6670, 1456, 1571,  902, 1600
6671, 1559,  171, 1315,  185
6672, 1509, 1547,  176,  183
6673, 1302, 1285, 1502, 1587
6674, 1166,  881, 1167, 1173
6675, 1216,  619, 1542,  620
6676, 1468, 1229, 1548, 1162
6677, 1588, 1592, 1548,  186
6678, 1549, 1540,  650, 1216
6679, 1374, 1376, 1375, 1380
6680, 1146, 1109, 1229, 1162
6681, 1378, 1233, 1540, 1548
6682, 1546, 1545,  169, 1503
6683, 1444,  169, 1443,  172
6684,  908, 1314,  912, 1589
6685, 1445, 1399, 1459, 1460
6686, 1599,  153,  140,  141
6687, 1546, 1545,  150,  169
6688, 1125, 1387, 1143,  421
6689, 1312, 1558, 1494, 1420
6690, 1125, 1387,  421,  422
6691, 1125,  422,  855, 1387
6692, 1051, 1482,  346,  335
6693, 1367, 1517,  517,  516
6694,  484,  515,  485, 1517
6695, 1565, 1193, 1367, 1517
6696, 1193, 1350, 1565, 1205
6697, 1130, 1349, 1240, 1272
6698, 1006, 1133, 1493, 1012
6699, 1196, 1133, 1269, 1352
6700, 1366, 1367, 1517,  517
6701, 1532, 1524,  431,  432
6702, 1532,  431, 1524, 1577
6703, 1182, 1416, 1254, 1331
6704, 1525,  432, 1567,  433
6705, 1525,  433, 1567, 1568
6706, 1522, 1416, 1331,  332
6707,  937, 1577, 1524, 1574
6708, 1432, 1413,  398,  399
6709, 1034, 1567,  402,  403
6710, 1328, 1036, 1034, 1567
6711, 1132,  889,  440,  409
6712,  889,  441, 1259, 1570
6713, 1128, 1068, 1132, 1069
6714, 1013, 1016, 1554, 1014
6715, 1013, 1554, 1491, 1014
6716, 1429,  440,  889,  441
6717, 1306,  853, 1308, 1118
6718, 1254,  331, 1223,  341
6719,  332, 1106, 1330,  328
6720,  804,  816,  805,  808
6721,  989, 1278, 1396, 1187
6722, 1106, 1483, 1411,  350
6723, 1186, 1185, 1551,  616
6724, 1465, 1185,  585,  616
6725, 1043, 1465, 1185,  585
6726, 1466, 1217, 1465, 1467
6727, 1103, 1236, 1208, 1253
6728, 1321, 1465, 1551, 1185
6729, 1163, 1172, 1510, 1598
6730, 1277, 1043,  555,  586
6731, 1102,  917, 1163, 1071
6732, 1264, 1101, 1430, 1126
6733,  853, 1121, 1122, 1118
6734, 1130, 1240, 1273, 1272
6735, 1432,  399, 1415, 1413
6736,  945, 1418, 1576, 1254
6737, 1011, 1160,  396, 1010
6738,  990, 1251, 1573, 1250
6739, 1193, 1203, 1565, 1367
6740, 1041, 1219,  467, 1472
6741, 1582, 1464,  419, 1523
6742, 1520, 1219,  466, 1528
6743, 1064, 1330,  939, 1331
6744, 1219, 1528,  435,  466
6745, 1569,  404, 1539,  405
6746,  388, 1523, 1195, 1582
6747, 1507, 1480,  127,  152
6748, 1506, 1480, 1507,  954
6749, 1507,  677,  954,  678
6750, 1506,  144,  127,   17
6751, 1529,  366,   76,   77
6752,   77,   78,  298, 1529
6753, 1505, 1529,  366,   76
6754, 1505, 1418,  305, 1463
6755, 1418,  281, 1531, 1529
6756, 1412, 1418, 1531, 1432
6757,  953, 1341,  613,  998
6758,  953, 1341,  861, 1422
6759,  953,  998,  613,  644
6760, 1322, 1346, 1585, 1448
6761, 1346, 1448,  857, 1235
6762, 1422,  953,  613,  614
6763,  952,  646,  954,  677
6764,  997,  998,  644,  643
6765,  998,  643, 1338,  612
6766,  997, 1338,  998,  643
6767, 1501, 1502, 1115,  656
6768, 1501, 1303, 1502,  625
6769, 1282, 1115, 1501, 1502
6770,  923, 1502, 1501, 1303
6771, 1170, 1460, 1459,  633
6772, 1459, 1399,  603, 1460
6773, 1455, 1400, 1459, 1399
6774, 1176, 1392,  510, 1543
6775, 1371, 1099, 1445, 1369
6776, 1311,  425, 1530, 1335
6777, 1434, 1435, 1222, 1563
6778, 1311,  394, 1530,  425
6779,  853,  856, 1120, 1310
6780, 1381,  944,  946, 1221
6781, 1516, 1009, 1463, 1563
6782, 1221, 1223, 1254, 1576
6783,  946, 1011, 1010, 1160
6784, 1311, 1335,  424,  425
6785, 1084,  478, 1279,  448
6786,  825,  938,  937,  936
6787, 1278, 1396,  418,  449
6788,  991, 1250, 1279, 1090
6789,  992, 1251,  990, 1250
6790, 1083, 1396,  449,  448
6791, 1457, 1546, 1443, 1503
6792, 1580, 1459,  664,  663
6793, 1581, 1580, 1458, 1579
6794, 1282, 1430, 1555, 1509
6795, 1394, 1510, 1172, 1512
6796, 1546, 1443, 1503,  169
6797, 1455, 1580, 1461, 1459
6798, 1599, 1546,  156, 1443
6799, 1422,  953, 1341,  613
6800, 1341,  998,  612,  613
6801, 1017, 1019, 1043, 1493
6802,  861, 1341,  998, 1338
6803,  581, 1352, 1353, 1339
6804, 1377, 1255, 1324,  979
6805, 1553, 1281,  923,  920
6806, 1339, 1341, 1338,  612
6807,  920,  656, 1501, 1553
6808, 1535,  376, 1070,  407
6809, 1062, 1016, 1410, 1411
6810, 1485, 1477,  438, 1484
6811, 1123, 1484,  436,  437
6812, 1477, 1484,  437,  438
6813, 1333, 1517,  854,  486
6814, 1190, 1195, 1189,  357
6815,  357, 1189,  387, 1195
6816, 1187, 1189,  386, 1188
6817, 1189, 1188,  355,  386
6818, 1188,  356, 1189,  355
6819, 1195, 1189,  387, 1582
6820, 1278,  418, 1582,  419
6821, 1569,  436, 1123, 1219
6822, 1034,  402, 1567, 1036
6823, 1567, 1568,  433,  434
6824, 1330,  939, 1331, 1332
6825, 1569,  405, 1123,  436
6826, 1329, 1330, 1066, 1408
6827, 1034, 1036, 1522, 1035
6828, 1517, 1453, 1348,  854
6829,  854,  856,  453,  855
6830,  856,  855,  422,  453
6831,  856, 1572, 1310,  422
6832, 1120, 1572, 1310,  856
6833,  418, 1582, 1187, 1278
6834, 1245, 1093,  575,  606
6835, 1449, 1327, 1224,  577
6836, 1224, 1327,  608,  577
6837, 1297, 1421, 1298, 1405
6838,  904,  913,  911,  910
6839, 1245, 1478, 1093,  606
6840, 1478,  638, 1440,  637
6841, 1297, 1452,  981, 1475
6842, 1132,  439, 1069,  408
6843, 1031, 1132,  439, 1069
6844, 1086,  410, 1087,  379
6845, 1069, 1128, 1015, 1214
6846, 1086, 1013, 1129, 1128
6847, 1213, 1086,  889, 1087
6848,  908, 1148, 1316, 1451
6849,  871,  989, 1464, 1278
6850,  981,  610, 1340,  611
6851, 1452, 1475, 1586,  981
6852, 1586,  981,  611,  642
6853, 1419, 1296,  640,  639
6854, 1326, 1296,  609,  610
6855, 1022, 1480, 1023,  151
6856, 1243, 1441, 1439, 1327
6857, 1294, 1327, 1471, 1296
6858, 1278, 1083, 1393,  987
6859, 1291, 1257,  504,  503
6860, 1291, 1256,  503,  502
6861,  867, 1291,  502, 1256
6862, 1292, 1293, 1361,  565
6863, 1583,  661, 1581,  692
6864, 1544, 1458, 1545, 1456
6865, 1456, 1590, 1583,  901
6866, 1583,  901, 1590,  661
6867, 1579,  138, 1600, 1583
6868, 1394, 1456,  900,  901
6869, 1512,  630,  901,  629
6870, 1442,  284, 1035,  370
6871, 1442, 1415,  369, 1036
6872,  936, 1414, 1415, 1532
6873,  282,  298,   78, 1531
6874,  944, 1220, 1221, 1222
6875, 1414, 1415, 1532,  400
6876, 1432,  368, 1415,  399
6877, 1414,  399, 1415,  400
6878, 1258,  443, 1268,  474
6879, 1049, 1268, 1152, 1344
6880, 1268, 1344,  474,  475
6881, 1584, 1069,  408, 1070
6882, 1584,  408, 1069,  439
6883, 1031,  470, 1485,  439
6884, 1032, 1485, 1484, 1477
6885, 1485, 1584, 1069,  439
6886,  970,  972,  971, 1470
6887, 1015, 1410, 1566, 1070
6888, 1055, 1523, 1059, 1143
6889, 1278, 1396, 1187,  418
6890, 1075, 1248, 1497, 1578
6891, 1497, 1248,  567, 1578
6892,  539,  538, 1533,  882
6893, 1079, 1543, 1392, 1176
6894,  920,  977,  655,  980
6895, 1354, 1238, 1239, 1355
6896, 1141, 1575, 1490, 1574
6897, 1497,  567, 1598, 1578
6898, 1183, 1154, 1158, 1515
6899,  854, 1517,  485,  486
6900, 1058, 1180, 1188, 1181
6901, 1159, 1160, 1158,  947
6902, 1159,  427, 1160,  428
6903, 1373,  459, 1159,  460
6904, 1373,  823, 1274, 1159
6905, 1496, 1092, 1398,  573
6906, 1362, 1496,  572,  573
6907,  853,  854, 1333, 1348
6908,  877,  992,  993,  988
6909,  511, 1392, 1176, 1357
6910,  827,  936,  937,  941
6911, 1371, 1399, 1398, 1397
6912, 1362, 1460,  602,  572
6913, 1075, 1172, 1578, 1497
6914, 1318,  882, 1511,  538
6915,  997,  674, 1561,  643
6916, 1347, 1023, 1585, 1235
6917, 1586, 1338, 1561,  643
6918,   12, 1421,  673,  672
6919, 1421,  143,  167,   12
6920, 1452, 1475, 1561, 1586
6921, 1452,  981,  642,  641
6922, 1476, 1562,  997, 1023
6923,  997,  952,  644,  998
6924, 1476, 1562, 1561,  997
6925, 1562,  997,  674, 1561
6926, 1382, 1058, 1181, 1180
6927, 1569, 1219,  435,  436
6928, 1061, 1219, 1123, 1484
6929, 1569,  435, 1219, 1528
6930, 1439, 1440, 1478,  638
6931, 1245, 1224, 1478,  607
6932, 1439,  638, 1478,  607
6933, 1098, 1245, 1478, 1093
6934, 1400, 1401,  155, 1595
6935,  148, 1431,  134, 1402
6936,  966, 1283, 1151, 1430
6937, 1402,  667, 1100,  636
6938, 1541,  979, 1379,  652
6939, 1541,  979,  653, 1324
6940, 1378, 1540, 1284, 1379
6941, 1541, 1324,  653,  622
6942, 1541,  622, 1325, 1324
6943, 1549, 1216,  649, 1217
6944, 1406, 1284,  620,  621
6945,  859, 1347, 1346, 1235
6946, 1267, 1012, 1269, 1196
6947, 1178, 1422, 1184,  953
6948,  187, 1229,  170, 1446
6949, 1353, 1352,  581,  550
6950, 1590, 1168, 1591,  630
6951, 1170, 1591,  631, 1461
6952, 1458, 1545, 1579, 1546
6953, 1591,  630, 1168,  631
6954,  923, 1102,  967, 1280
6955, 1237, 1153,  444,  445
6956, 1237, 1250,  445, 1573
6957, 1251, 1250, 1237, 1573
6958, 1052,  973, 1237, 1268
6959,  973, 1237,  444,  413
6960, 1053, 1258, 1450, 1259
6961, 1313, 1310,  391,  392
6962, 1313, 1310,  392,  393
6963,  321, 1518, 1420,  361
6964, 1309, 1313, 1518,  362
6965, 1420, 1494,  327,  342
6966, 1516, 1563, 1463,  352
6967, 1590, 1591,  661,  630
6968, 1591, 1583, 1590,  661
6969,  859, 1294, 1337, 1475
6970, 1512, 1590,  901,  630
6971, 1394, 1512, 1590,  901
6972, 1544, 1503, 1138, 1315
6973, 1551,  617, 1465, 1217
6974, 1466, 1550, 1551, 1217
6975, 1550,  954,  647,  678
6976,  954, 1507, 1552, 1438
6977, 1098, 1397, 1093, 1478
6978, 1098, 1243, 1478, 1245
6979, 1094, 1398, 1399, 1496
6980, 1397, 1478,  605, 1093
6981,  635, 1397,  604, 1399
6982, 1478,  636, 1402, 1397
6983, 1298, 1513,  179, 1150
6984, 1220, 1222, 1403, 1223
6985, 1084, 1279,  478, 1090
6986,  941, 1414, 1275, 1413
6987, 1220, 1025, 1498, 1223
6988,  946,  945, 1418, 1576
6989,  992, 1048,  993, 1046
6990,  350, 1027, 1136, 1483
6991, 1416,  308, 1486,  306
6992, 1586,  981, 1340,  611
6993,  936, 1577,  937,  941
6994, 1339, 1586,  612, 1338
6995, 1347, 1561, 1586, 1338
6996, 1439,  607, 1478, 1224
6997, 1027, 1483,  350,  346
6998, 1439, 1224,  608,  607
6999, 1439,  608, 1224, 1327
7000, 1440, 1295, 1404,  670
7001, 1298,  968, 1150,  179
7002, 1101, 1109, 1162, 1112
7003, 1148, 1109, 1112, 1316
7004, 1146, 1109, 1447, 1229
7005, 1027, 1025,  347,  351
7006,  197, 1316,  196, 1109
7007, 1051, 1482, 1027,  346
7008, 1302, 1163, 1359, 1304
7009, 1155, 1316, 1112, 1315
7010, 1151, 1112,  185, 1315
7011, 1377,  980, 1228,  979
7012, 1514, 1553, 1555, 1597
7013, 1514, 1126,  165, 1555
7014, 1514,  194, 1597,  165
7015, 1375, 1514, 1126,  184
7016, 1262, 1241, 1208, 1103
7017, 1029, 1483, 1027, 1482
7018, 1319, 1466, 1467, 1594
7019, 1228,  980, 1514, 1597
7020, 1228, 1514,  194, 1597
7021, 1596, 1380,  164, 1228
7022, 1379, 1228, 1596,  683
7023, 1294, 1326,  981, 1296
7024, 1337, 1340, 1586,  981
7025, 1295, 1440,  639,  670
7026, 1471, 1296,  608,  609
7027, 1296,  610,  981,  641
7028, 1452,  672, 1419,  641
7029, 1009, 1010, 1505,  946
7030, 1381,  946, 1011, 1009
7031, 1034, 1329, 1330, 1332
7032, 1463, 1576,  305,  352
7033, 1221, 1563, 1223, 1576
7034,  946, 1576, 1418, 1463
7035, 1516, 1009, 1564,  364
7036, 1009, 1564,  364,  395
7037, 1505,  365, 1463,   75
7038, 1512,  629,  901, 1510
7039, 1512, 1510,  598,  629
7040, 1369, 1400, 1371, 1401
7041, 1174, 1512, 1598,  599
7042, 1283, 1151, 1509, 1559
7043,  422,  855,  856, 1572
7044, 1120, 1125, 1572,  855
7045, 1572,  422, 1125,  391
7046, 1313, 1310, 1312,  391
7047, 1349,  518, 1272,  519
7048, 1550, 1186, 1551,  647
7049, 1588, 1592,  186,  130
7050, 1186,  616, 1551,  647
7051, 1437,  996,  954, 1480
7052, 1321, 1186, 1185, 1551
7053, 1178,  953, 1469,  954
7054, 1016,  353, 1483,  339
7055, 1483, 1482,  339,  346
7056, 1111, 1183, 1515, 1335
7057, 1016, 1411, 1483,  353
7058, 1483, 1411,  350,  353
7059,  351,  350, 1027, 1136
7060, 1136, 1025, 1027,  351
7061,  863,  926,  927,  867
7062, 1175, 1301, 1300, 1142
7063, 1302, 1163, 1358, 1359
7064, 1218, 1301, 1527, 1520
7065, 1254, 1498, 1135, 1331
7066, 1441, 1295, 1296, 1294
7067,  996, 1480,  952,  954
7068,  125, 1562,  198, 1023
7069,  952,  644,  953,  645
7070, 1469,  953,  615,  646
7071, 1469, 1186,  954,  646
7072, 1172, 1497, 1598, 1578
7073, 1593, 1510, 1395,  597
7074, 1376,  967,  966, 1281
7075, 1497,  568, 1598,  567
7076, 1598,  599, 1512,  598
7077, 1593,  566, 1578,  567
7078, 1174,  599, 1598,  568
7079, 1593,  566, 1361, 1578
7080, 1567, 1532,  401,  432
7081, 1525, 1532,  432, 1524
7082, 1567,  401, 1532, 1036
7083, 1034, 1526, 1567,  403
7084, 1567,  403, 1526,  434
7085, 1339, 1340,  580,  611
7086, 1339, 1586, 1340,  611
7087,  862,  861, 1178,  996
7088, 1202, 1326, 1200, 1340
7089, 1196, 1341, 1339, 1352
7090,  920,  625, 1501,  656
7091, 1147, 1448, 1451,  969
7092, 1156,  969, 1589, 1150
7093, 1449, 1205,  545, 1355
7094,  920, 1501,  625,  921
7095, 1040, 1041, 1472, 1219
7096, 1227, 1274,  429, 1413
7097, 1432, 1010,  367,  398
7098,  942, 1160, 1227, 1159
7099, 1227, 1159, 1160,  429
7100, 1432, 1529,  367, 1010
7101, 1601,  725,  308,  340
7102,  315,  696, 1602,  697
7103,  308,  761,  725, 1601
7104, 1601,  701,  761,  700
7105, 1601,  761,  701,  282
7106,  306,  761,  308,  282
7107,  761,  308,  282, 1601
7108,  697,  299, 1602,  315
7109, 1603,  308,  761,  725
7110, 1603,  725,  761,  751
7111, 1603,  344,  757,  324
7112, 1604, 1603,  757,  324
7113, 1604,  308, 1603,  324
7114, 1603,  745,  725,  751
7115, 1603,  751,  757,  745
7116, 1603,  332,  745,  344
7117, 1605,  121,  718,  122
7118, 1605,   92,  122,   93
7119, 1605,  704,  123,  122
7120,  292,   91,  121, 1605
7121, 1605,  304,  721,  292
7122, 1605,  721,  704,  718
7123, 1605,  704,  304,  301
7124, 1606, 1607,  348,  315
7125, 1606, 1608,  720,  698
7126, 1606,  318, 1608,  299
7127, 1608,  698,  299,  716
7128, 1606,  697,  299,  698
7129, 1608,  698,  716,  723
7130,  340,  314,  716, 1608
7131, 1608,  723,  340,  317
7132, 1608,  318, 1609,  317
7133, 1608,  723, 1609,  720
7134, 1610,  763,  744,  323
7135, 1610,  740,  322,  326
7136, 1610,  753,  744,  763
7137, 1610,  744,  326,  323
7138,  326,  740,  744, 1610
7139,  113, 1602,   84,  114
7140, 1611,  745,  344,  746
7141, 1611,  746,  743,  745
7142,  328, 1611,  745,  344
7143,  746, 1611, 1612,  344
7144, 1609,  752,  328,  318
7145, 1611,  752,  762,  338
7146,  353, 1611, 1612,  762
7147, 1611,  338,  762,  353
7148, 1613,  754,  345,  773
7149, 1613,  758,  754,  773
7150,   83, 1602,   84,  113
7151,  737,  352, 1614, 1613
7152,  349, 1613,  773,  758
7153, 1613,  748,  754,  737
7154, 1613,  754,  748,  327
7155, 1613,  754,  327,  333
7156, 1613,  345,  754,  333
7157, 1613,  327,  737,  352
7158, 1615,  731,  298,  715
7159, 1615,  735,  731,  715
7160, 1615,  735,  761,  731
7161,  282, 1615,  701,  298
7162,  306,  281, 1616, 1615
7163,  331,  281, 1616,  306
7164,  353, 1617,  767,  346
7165, 1617,  767,  346,  764
7166, 1617,  759,  767,  764
7167, 1617,  763,  764,  334
7168, 1617,  765,  763,  335
7169, 1617,  334,  764,  346
7170, 1617,  339,  765,  335
7171, 1609,  745,  723,  332
7172, 1609,  745,  328,  743
7173, 1609,  723,  317,  332
7174, 1608,  317, 1609,  723
7175, 1609,  317,  318,  328
7176,  331,  736,  747, 1604
7177, 1604,  747,  341,  757
7178, 1604,  736,  747,  735
7179, 1604,  747,  331,  341
7180, 1604,  751,  747,  757
7181,  761,  308, 1603, 1604
7182, 1604,  735,  751,  761
7183,  315, 1602,   84,   83
7184,   84, 1602,  320,  114
7185, 1614,  737,  758,  770
7186, 1614,  331, 1616,  736
7187, 1613,  352, 1614,  349
7188,  331, 1604, 1616,  736
7189,  349,  747,  331, 1614
7190, 1614,  747,  758,  349
7191, 1606,  772,  697,  720
7192, 1606,  318,  772,  720
7193, 1607,  772,  734,  733
7194, 1607,  320,  733,  285
7195, 1606,  348,  772,  318
7196, 1607,  772,  733,  696
7197, 1607,  697,  772,  696
7198, 1618,  354,  771,  341
7199, 1618,  773,  771,  354
7200, 1618,  771,  773,  769
7201, 1618,  766,  769,  347
7202, 1618,  769,  354,  347
7203, 1619,  756, 1620,  729
7204, 1619, 1620,  300,  729
7205, 1619,  734,  756,  717
7206,   87,  739, 1619,  300
7207,  300,   87,  313, 1619
7208,  319,  756,  329, 1619
7209, 1619,  717,  313,  319
7210, 1619,  739,  729,  300
7211, 1620,  756,  329,  337
7212, 1620,  728,  706,  756
7213,  719,  288,  708,  311
7214, 1620,  728,  337,  290
7215,  714,  312,  100,  101
7216, 1621,  711,  307,  295
7217, 1621,  294,  712,  124
7218,  294,   94,  124, 1621
7219,  711,   95,   65, 1621
7220, 1621,  711,  295,   65
7221, 1621,  712,    4,  124
7222, 1621,    3,    4,   65
7223,  766, 1612,  767,  347
7224,  767,  347,  764,  766
7225, 1612,  762,  746,  767
7226, 1622,  316,   73,   74
7227,  740,  302,  726,  719
7228,  353,  767, 1612,  346
7229,  346,  353,  350, 1612
7230,  722,  741,  325, 1623
7231, 1623,  722,  304,  325
7232, 1623,  323,  741,  325
7233, 1623,  744,  727,  741
7234, 1623,  727,  307,  310
7235, 1623,  727,  310,  722
7236, 1622,  103,   74,   73
7237, 1622,  103,  702,  104
7238, 1624,  302,  287,  296
7239,  279, 1622,  316,  770
7240,   75,  738,   74,  279
7241,  738,   74,  279, 1622
7242, 1622,  770,  738,  702
7243,  702,  770,  352,  316
7244, 1614, 1616,  770,  736
7245,  280,  730,  738, 1616
7246, 1616,  715,  730,  736
7247, 1616,  280,  715,  281
7248, 1614,  305, 1616,  331
7249, 1604, 1616,  736,  735
7250, 1624,   97,   68,   67
7251, 1624,  287,  713,   96
7252, 1624,  709,   98,   97
7253,  287,   66,   96, 1624
7254, 1624,  302,  709,  726
7255, 1624,  726,  713,  287
7256, 1624,  296,  709,  302
7257,  724,  309,  307,  286
7258, 1613,  737,  327,  748
7259,  753,  760,  769,  343
7260,  740,  750,  760,  322
7261,  753,  764,  334,  347
7262,  754,  333,  760,  750
7263, 1610,  322,  740,  760
7264,  754,  333,  755,  748
7265,  333,  760,  322,  343
7266, 1613,  754,  758,  737
7267,  769,  773,  354,  343
7268,  767,  762,  759,  353
7269,  762,  759,  353,  768
7270, 1611,  350,  328,  338
7271,  328,  752, 1609,  743
7272, 1607,  285,  734,  348
7273,  734,  717,  285,  733
7274, 1606,  299,  315,  318
7275, 1611, 1612,  762,  746
7276,  729, 1620,   89,  119
7277,  347, 1612,  767,  346
7278,  762,  338,  768,  353
7279,  734,  768,  338,  319
7280, 1618,  766,  347,  351
7281, 1613,  349, 1614,  758
7282,  769,  760,  773,  343
7283, 1614,  352,  770,  305
7284, 1618,  341,  771,  757
7285, 1612,  350,  351,  344
7286, 1603,  745,  757,  344
7287,  332,  725,  308, 1603
7288, 1611,  328,  745,  743
7289,  745,  344,  332,  328
7290,  745,  725,  723,  332
7291, 1617,  764,  763,  765
7292,  753,  764,  763,  334
7293,  754,  773,  343,  345
7294,  762,  752,  768,  338
7295, 1614,  770,  758,  736
7296, 1612,  766,  351,  347
7297,  345,  349, 1613,  773
7298, 1614,  736,  758,  747
7299,  771,  349,  773,  758
7300,  771,  354,  773,  349
7301, 1617,  764,  765,  759
7302,  765,  741,  325,  742
7303,  763,  323,  741,  744
7304,  763,  741,  323,  335
7305,  771,  341,  747,  757
7306, 1614, 1616,  305,  770
7307,  771,  758,  747,  349
7308, 1622,  738,  770,  279
7309, 1610,  753,  763,  334
7310, 1617,  763,  334,  335
7311,  759,  353,  768,  336
7312, 1611,  743,  762,  752
7313,  739,   87,  117,   88
7314, 1619,  739,  717,  756
7315,  739,  118,   88,  117
7316, 1619,   87,  313,  717
7317,  717,  739, 1619,   87
7318,  765,  742,  325,  339
7319,  765,  325,  741,  335
7320,  727,  712,  294,  703
7321, 1623,  722,  310,  304
7322,  742,  721,  303,  728
7323,  763,  335,  765,  741
7324,  742,  749,  330,  339
7325,  759,  742,  339,  749
7326,  770,  279,  305,  352
7327,  290,  706,  119, 1620
7328, 1620,  300,   89,  290
7329, 1620,  706,  119,  729
7330, 1620,  729,  756,  706
7331,  759,  749,  339,  336
7332, 1611,  746,  762,  743
7333, 1617,  765,  339,  759
7334, 1601,  700,  725,  699
7335, 1603, 1604,  751,  761
7336, 1603,  725,  745,  332
7337, 1624,  709,  713,  726
7338,  725,  723,  332,  340
7339, 1614,  331,  736,  747
7340, 1621,  711,   95,    4
7341,  757,  344,  351,  341
7342,  331,  306, 1616, 1604
7343, 1604,  761,  306,  735
7344,  701, 1601,  283,  700
7345,  286,  710,  287,   66
7346,  710,   66,   96,  287
7347, 1624,   96,   67,   66
7348,  309,  726,  287,  710
7349,  719,  707,  755,  311
7350, 1624,   96,  713,   97
7351, 1624,  713,  709,   97
7352,  291,   91,  121,  292
7353, 1615,  281,  715,  298
7354, 1615,  281, 1616,  715
7355, 1615,  306,  761,  735
7356,  282,  701,   78,  298
7357,  108,  731,  298,  701
7358,  722,  703,  310,  293
7359,  325,  722,  304,  721
7360,  741,  325,  742,  721
7361,  740,  719,  322,  302
7362, 1621,  711,  727,  307
7363,  734,  348,  752,  772
7364,  734,  752,  338,  768
7365,  119, 1620,   89,  290
7366, 1619,  319,  734,  717
7367,  756,  734,  319,  768
7368,   87,  717,  739,  117
7369, 1619, 1620,  329,  300
7370, 1619,  729,  739,  756
7371,  113, 1602,  698,   83
7372,  698, 1602,  299,   83
7373, 1606,  697,  698,  720
7374, 1607,  348,  734,  772
7375,  113,  697, 1602,  114
7376,  708,  709,  296,  719
7377,  708,   98,   68,  709
7378, 1621,  124,    3,   94
7379, 1623,  741,  323,  744
7380, 1621,  307,  727,  294
7381,  124,  294,  712,  703
7382, 1621,  294,  727,  712
7383, 1621,  712,  727,  711
7384, 1623,  307,  744,  323
7385,  727,  722,  703,  310
7386,  727,  724,  307,  711
7387,  711,  286,  724,  307
7388,  711,  724,  286,  710
7389,  286,   95,   65,  711
7390,  724,  286,  710,  309
7391,  724,  726,  326,  309
7392,  727,  703,  294,  310
7393, 1623,  727,  744,  307
7394,   95,  286,   66,  710
7395,   65,   95,  286,   66
7396,  711,  286,   95,  710
7397,  726,  287,  710,  713
7398,  724,  726,  309,  710
7399,  753,  769,  347,  343
7400, 1621,  712,  711,    4
7401,  744,  724,  726,  326
7402,  105,  280,   75,   76
7403,  289,  311,  707,  708
7404,  708,   68,   98,   69
7405,  719,  709,  296,  302
7406,   68,  709,  296,  708
7407,  732,  321,  748,  714
7408,  714,  102,  321,  101
7409,  748,  327,  342,  321
7410,  732,  103,   73,  102
7411,  771,  349,  747,  341
7412,  737,  732,  297,  748
7413,  748,  714,  321,  342
7414,  303,  705,  718,  291
7415,  333,  327,  748,  754
7416,  732,  297,  748,  321
7417,  737,  702,  352,  297
7418,  748,  342,  755,  714
7419,  751, 1604, 1603,  757
7420,  744,  724,  326,  307
7421,   96,  287,  713,  710
7422,  754,  760,  343,  773
7423,  754,  343,  760,  333
7424, 1624,  726,  287,  302
7425,  721,  741,  325,  722
7426,  754,  333,  750,  755
7427, 1618,  766,  351,  757
7428,  759,  336,  768,  749
7429, 1618,  351,  347,  354
7430,  726,  326,  740,  744
7431,  705,  120,  291,  290
7432,  722,  703,  293,  704
7433,  121,  292,  718,  291
7434, 1605,  123,   93,  122
7435,  705,  121,  291,  120
7436, 1624,  709,  296,   68
7437,  750,  755,  333,  311
7438, 1604,  747,  751,  735
7439,  715,  107,  298,   77
7440,  715,  280,  730,  106
7441,  715, 1615,  735, 1616
7442, 1603,  344,  324,  332
7443, 1618,  771,  769,  766
7444,  757,  341,  324,  344
7445,  306,  761, 1604,  308
7446, 1614,  305,  349,  352
7447,  746,  745,  344,  757
7448,  321,  101,  312,  714
7449,  732,  102,  321,  714
7450,  754,  333,  345,  343
7451, 1616,  730,  738,  770
7452,  732,  102,   73,   72
7453,  730,  738,  105,  280
7454,  769,  347,  343,  354
7455,  715,  106,   77,   76
7456, 1613,  737,  758, 1614
7457,  715,  735,  736, 1616
7458,  771,  341,  354,  349
7459,  773,  345,  349,  354
7460,  350,  353, 1611, 1612
7461,  716,  340,  699,  284
7462, 1601,  699,  283,  700
7463,  699,  340,  716,  723
7464,  701,  700,  283,  109
7465,  699,  110,  284,  283
7466,  699,  283,  700,  110
7467, 1616, 1615,  735,  306
7468, 1615,  761,  306,  282
7469, 1604,  324,  757,  341
7470, 1608,  720,  698,  723
7471,  340,  716,  723, 1608
7472, 1606, 1607,  697,  772
7473,  698,   82,  716,  112
7474,  697,  113, 1602,  698
7475, 1606,  299,  697,  315
7476, 1606, 1608,  318,  720
7477, 1607,  696,  315,  697
7478, 1609,  743,  752,  720
7479, 1609,  720,  723,  743
7480, 1607,  348,  315,  320
7481, 1601,  725,  340,  699
7482,  725,  723,  340,  699
7483, 1604,  324,  341,  331
7484,  298,  701,   78,  108
7485, 1603,  332,  324,  308
7486, 1608,  318,  317,  299
7487,  705,  728,  290,  303
7488,  742,  728,  303,  330
7489, 1605,  721,  718,  292
7490,  709,  719,  726,  302
7491,  740,  750,  322,  719
7492,  293,  123,   93,  704
7493, 1610,  760,  740,  753
7494,  753,  347,  769,  764
7495,  696,  733,  320,  115
7496, 1607,  696,  733,  320
7497,  734,  285,  717,  319
7498, 1607,  696,  320,  315
7499, 1619,  734,  319,  756
7500,  320, 1602,  696,  114
7501,  742,  728,  330,  749
7502,  705,  728,  303,  721
7503,  728,  337,  749,  756
7504,  728,  749,  337,  330
7505, 1620,  728,  290,  706
7506, 1605,  704,  721,  304
7507,  705,  303,  290,  291
7508,  764,  334,  347,  346
7509,  750,  311,  719,  755
7510, 1617,  335,  346,  339
7511, 1610,  753,  334,  343
7512,  285,  115,  320,  733
7513, 1607,  734,  285,  733
7514, 1615,  701,  298,  731
7515,  759,  353,  336,  339
7516,  336,  756,  319,  768
7517, 1611,  328,  350,  344
7518,  106,  105,   76,  280
7519,  766,  769,  347,  764
7520,  717,   86,  116,   87
7521,  768,  319,  336,  338
7522,  124,   94,  703,  123
7523, 1621,  124,    4,    3
7524, 1624,   66,   67,  287
7525, 1605,  122,   92,  121
7526,  704,  123,   93, 1605
7527, 1612,  757,  746,  344
7528, 1605,  121,   92,   91
7529, 1623,  325,  304,  323
7530, 1605,  704,  301,   93
7531, 1610,  334,  323,  326
7532, 1605,  718,  704,  122
7533,  120,  119,   90,  290
7534, 1605,  292,   92,  301
7535, 1612,  746,  766,  767
7536,  291,  303,  292,  718
7537,  729,  118,  119,   89
7538,  729,   88,  739,  118
7539,  120,  290,  706,  119
7540,  119,   90,  290,   89
7541,  721,  705,  718,  303
7542,  729,  300,   88,   89
7543,  717,  116,  117,   87
7544, 1619,  300,  329,  313
7545,  742,  339,  330,  325
7546,  716,  111,  112,   82
7547,  116,  115,   86,  285
7548,  115,  285,   85,   86
7549,  739,   88,  300,   87
7550,  338,  734,  348,  752
7551,  717,  116,  285,  733
7552, 1619,  319,  313,  329
7553,  717,   87,  313,   86
7554, 1606, 1607,  315,  697
7555,  698,  299,  716,   82
7556,  699,  111,  284,  110
7557,  716,  111,   82,   81
7558,  697,  698, 1602,  299
7559, 1608,  317,  314,  299
7560,  716,   82,  299,  314
7561,  755,  707,  342,  311
7562, 1609,  332,  317,  328
7563,   81,  314,  716,  284
7564,  299, 1602,  315,   83
7565,  110,  109,   80,  283
7566, 1608,  716,  299,  314
7567, 1601,  340,  308,  283
7568, 1615,  761,  282,  701
7569,  699,  340,  283,  284
7570, 1601,  308,  282,  283
7571, 1605,  292,  718,  121
7572,  770, 1616,  279,  738
7573,  740,  726,  302,  326
7574, 1622,  702,  738,  104
7575,  701,  108,   79,   78
7576,  715,  281,   77,  298
7577,  773,  354,  343,  345
7578, 1606, 1608,  698,  299
7579, 1616,  305,  280,  281
7580,  738,  104,   75,   74
7581,  738,  105,  280,   75
7582,  770,  702,  352,  737
7583,  315,  320, 1602,  696
7584, 1622,  104,   74,  103
7585,  732,  102,   72,  321
7586, 1622,  279,  316,   74
7587, 1622,  738,   74,  104
7588,  707,  312,  342,  289
7589, 1618,  757,  351,  341
7590,  707,  289,   99,  100
7591,   99,   70,  289,   69
7592,  709,   98,   68, 1624
7593, 1624,   97,   98,   68
7594,  719,  288,  311,  302
7595,  737,  327,  748,  297
7596, 1624,   97,   67,   96
7597,  770,  352, 1614,  737
7598,  755,  714,  342,  707
7599,   99,  708,   69,  289
7600, 1623,  727,  722,  741
7601,  296,  719,  288,  708
7602, 1618,  341,  351,  354
7603, 1612,  351,  766,  757
7604, 1611,  353,  350,  338
7605, 1611, 1612,  344,  350
7606,  742,  303,  721,  325
7607, 1612,  350,  346,  351
7608, 1615,  761,  701,  731
7609, 1612,  757,  344,  351
7610,  341,  349,  747,  331
7611, 1613,  345,  352,  349
7612,  765,  759,  742,  339
7613,  765,  339,  325,  335
7614,  768,  336,  353,  338
7615, 1620,  337,  329,  300
7616,  329,  336,  756,  319
7617,  756,  329,  337,  336
7618,  752,  772,  318,  720
7619,  752,  348,  338,  318
7620,  717,  116,   86,  285
7621,  319,  338,  734,  348
7622, 1606,  318,  315,  348
7623,  101,   72,  321,   71
7624, 1613,  333,  327,  345
7625, 1618,  757,  771,  766
7626,  750,  333,  760,  322
7627,  748,  333,  755,  342
7628,  759,  353, 1617,  767
7629,  762,  767, 1612,  353
7630, 1610,  334,  326,  322
7631,  705,  718,  291,  121
7632, 1610,  763,  323,  334
7633, 1612,  346,  347,  351
7634, 1604,  308,  324,  306
7635,  710,  287,  309,  286
7636,  750,  311,  333,  322
7637,  727,  744,  307,  724
7638,  743, 1611,  328,  752
7639, 1616,  770,  736,  730
7640, 1613,  352,  345,  327
7641,  723,  340,  317,  332
7642, 1619,  329, 1620,  756
7643, 1609,  723,  745,  743
7644, 1601,  725,  700,  761
7645,  738, 1616,  279,  280
7646, 1612,  766,  746,  757
7647, 1610,  740,  744,  753
7648,  732,   72,   73,  297
7649,   71,  321,  101,  312
7650, 1621,  295,  307,  294
7651,  744,  307,  326,  323
7652,  726,  309,  287,  302
7653,  703,   94,  124,  294
7654, 1605,   93,  301,   92
7655,   93,  704,  301,  293
7656,  312,  100,   71,   70
7657,  707,  289,  100,  312
7658, 1618,  354,  769,  773
7659,  101,   71,  312,  100
7660,  312,   70,  289,  100
7661,  115,  114,   85,  320
7662,  696,  115,  320,  114
7663,  749,  756,  337,  336
7664,  768,  749,  336,  756
7665,  763,  334,  335,  323
7666,  721,  304,  325,  303
7667, 1623,  304,  310,  323
7668, 1623,  323,  310,  307
7669,   94,  703,  123,  293
7670,  753,  343,  347,  334
7671,  708,  311,  707,  719
7672,  731,  108,  298,  107
7673, 1609,  328,  745,  332
7674,  699,  284,  111,  716
7675, 1609,  720,  752,  318
7676,  698,   83,  299,   82
7677,  704,  301,  293,  304
7678, 1605,  301,  304,  292
7679, 1605,  292,   91,   92
7680,  721,  304,  303,  292
7681, 1617,  353,  339,  346
7682,  121,  120,   91,  291
7683,  752, 1611,  328,  338
7684,  284,  314,  716,  340
7685,  719,  311,  322,  302
7686,  703,  293,  294,  310
7687, 1617,  346,  335,  334
7688,  724,  307,  309,  326
7689,  311,  288,  708,  289
7690,  707,  714,  342,  312
7691,  737,  297,  732,  702
7692,  738,  104,  105,   75
7693,  722,  704,  304,  721
7694,  722,  293,  310,  304
7695,  120,   90,  291,  290
7696,  716,   81,   82,  314
7697,  700,  110,  283,  109
7698,  731,  298,  715,  107
7699, 1614,  349,  305,  331
7700,  715,  281,   76,   77
7701, 1616,  280,  305,  279
7702,  738,   75,  280,  279
7703,  707,  714,  312,  100
7704,  732,  321,   72,  297
7705, 1616,  770,  279,  305
7706, 1621,    4,   95,   65
7707,  727,  307,  310,  294
7708, 1624,  296,  287,   67
7709,   65,  711,  295,  286
7710,  728,  303,  337,  290
7711,  703,   94,  294,  293
7712, 1621,  294,   94,    3
7713,  123,   94,  293,   93
7714,  726,  326,  309,  302
7715,  718,  303,  292,  721
7716,  120,   90,   91,  291
7717, 1620,  728,  756,  337
7718,  717,  319,  285,  313
7719,  733,  116,  285,  115
7720,  748,  327,  321,  297
7721,  749,  339,  336,  330
7722,  728,  303,  330,  337
7723,  742,  325,  330,  303
7724, 1621,  295,  294,    3
7725,   99,  289,   70,  100
7726,  289,  708,   69,  288
7727,  707,  311,  289,  342
7728,  708,   99,   69,   98
7729,  710,   96,   66,   95
7730,  714,  342,  312,  321
7731, 1624,  296,   67,   68
7732,  302,  719,  288,  296
7733, 1610,  753,  343,  760
7734,  729,  118,   89,   88
7735, 1620,  729,   89,  300
7736,  705,  290,  706,  120
7737,  705,  290,  728,  706
7738,  755,  311,  342,  333
7739,  740,  326,  302,  322
7740, 1606, 1607,  772,  348
7741, 1608,  720, 1609,  318
7742,  698,   82,  112,   83
7743,  752,  328,  318,  338
7744,  282,  701, 1601,  283
7745, 1607,  285,  348,  320
7746,  717,  285,   86,  313
7747,  696, 1602,  697,  114
7748,  734,  348,  285,  319
7749,  741,  323,  335,  325
7750,  114,   84,   85,  320
7751,   85,  285,  115,  320
7752,  300,  729,   88,  739
7753,  698,  112,  113,   83
7754,  315,   84, 1602,  320
7755, 1620,  337,  300,  290
7756,  342,  327,  748,  333
7757,  109,  701,   79,  283
7758,  108,  298,  107,   78
7759, 1604,  324,  331,  306
7760,  701,  282,   78,   79
7761,  110,   80,   81,  284
7762,  722,  304,  704,  293
7763,  701,  109,   79,  108
7764,  730,  106,  280,  105
7765, 1601,  283,  699,  340
7766,  716,  284,  111,   81
7767,  752,  318,  772,  348
7768,  340,  332,  725,  308
7769, 1608,  314,  317,  340
7770, 1622,  103,   73,  702
7771,  306, 1616, 1604,  735
7772, 1615,  306,  298,  282
7773, 1615,  281,  298,  306
7774,  110,  284,  283,   80
7775, 1617,  759,  339,  353
7776,  107,   78,  298,   77
7777,  283,  701,   79,  282
7778,  297,   73,  732,  702
7779, 1616,  730,  715,  280
7780,  715,  106,   76,  280
7781, 1616,  331,  305,  281
7782,  715,  280,   76,  281
7783,  715,  107,   77,  106
7784,   73,  732,  702,  103
7785, 1610,  760,  343,  322
7786,  703,  293,  704,  123
7787,  708,   68,  288,  296
7788,  708,  707,  289,   99
7789, 1610,  322,  343,  334
7790, 1621,   65,  295,    3
7791,  749,  330,  336,  337
7792,  711,  307,  295,  286
7793,  750,  322,  719,  311
7794,  708,   69,  288,   68
7795,  737,  297,  352,  327
7796,  102,  101,   72,  321
7797,  109,   80,  283,   79
7798,  770, 1622,  316,  702
7799,  297,  702,  316,   73
7800,  346,  347,  764,  767
7801,  702,  297,  316,  352
7802,  316,  770,  352,  279
7803,  111,  110,   81,  284
7804,   73,  702,  316, 1622
*Nset, nset=_PickedSet6, internal, generate
    1,  1624,     1
*Elset, elset=_PickedSet6, internal, generate
    1,  7804,     1
*Elset, elset=_ContactFace_S3, internal
  800,  821,  863,  865,  877,  883,  886,  977, 1015, 1048, 1094, 1107, 1113, 1309, 1335, 1336
 1354, 1369, 1373, 1428, 1437, 1478, 1506, 1696, 1710, 1718, 1731, 1768, 1953, 1990, 2042, 2080
 2160, 2178, 2220, 2252, 2346, 2357, 2361, 2364, 2373, 2385, 2388, 2400, 2413, 2416, 2439, 2461
 2489, 2512, 2521, 2571, 2603, 2605, 2625, 2648, 2674, 2716, 2742, 2773, 2784, 2801, 2805, 2806
 2813, 2817, 2829, 2831, 2833, 2836, 2848, 2889, 2904, 2910, 2935, 2953, 2963, 2970, 2998, 3005
 3006, 3010, 3013, 3018, 3026, 3035, 3064, 3071, 3072, 3077, 3079, 3095, 3102, 3108, 3127, 3130
 3137, 3152, 3153, 3178, 3199, 3221, 3229, 3238, 3240, 3242, 3251, 3253, 3258, 3264, 3266, 3272
 3275, 3282, 3283, 3303, 3308, 3309, 3318, 3321, 3326, 3331, 3332, 3334, 3335, 3339, 3348, 3349
 3357, 3358, 3360, 3363, 3371, 3373, 3374, 3377, 3379, 3415, 3421, 3423, 3424, 3428, 3429, 3433
 3438, 3439, 3444, 3445, 3446, 3448, 3453, 3455, 3457, 3461, 3462, 3463, 3473, 3475, 3478, 3482
 3490, 3492, 3493, 3496, 3504, 3508, 3515, 3517, 3520, 3524, 3527, 3530, 3534, 3537, 3545, 3546
 3550, 3554, 3558, 3567, 3569, 3578, 3583, 3591, 3596, 3599, 3603, 3605, 3606, 3608, 3613, 3614
 3620, 3627, 3630, 3631, 3634, 3635, 3636, 3637, 3640, 3647, 3650, 3652, 3653, 3659, 3661, 3664
 3666, 3670, 3671, 3673, 3679, 3685, 3687, 3691, 3693, 3699, 3707, 3710, 3714, 3716, 3717, 3721
 3722, 3723, 3728, 3733, 3736, 3743, 3745, 3755, 3758, 3759, 3760, 3762, 3766, 3767, 3771, 3774
 3776, 3780, 3783, 3787, 3792, 3795, 3797, 3803, 3804, 3809, 3810, 3812, 3813, 3826, 3833, 3842
 3844, 3848, 3852, 3855, 3857, 3863, 3870, 3872, 3877, 3880, 3883, 3886, 3888, 3889, 3898, 3906
 3909, 3912, 3915, 3918, 3922, 3927, 3930, 3932, 3935, 3937, 3939, 3950, 3951, 3952, 3958, 3960
 3964, 3971, 3973, 3977, 3978, 3983, 3990, 3991, 3993, 4002, 4006, 4017, 4018, 4020, 4036, 4051
 4052, 4058, 4059, 4060, 4065, 4066, 4069, 4075, 4076, 4083, 4092, 4093, 4095, 4096, 4100, 4101
 4102, 4104, 4106, 4108, 4111, 4114, 4117, 4120, 4126, 4129, 4134, 4138, 4146, 4157, 4161, 4162
 4163, 4166, 4172, 4175, 4178, 4180, 4182, 4183, 4187, 4189, 4214, 4217, 4221, 4222, 4226, 4228
 4229, 4234, 4236, 4242, 4248, 4252, 4260, 4263, 4265, 4267, 4270, 4275, 4277, 4278, 4292, 4298
 4299, 4304, 4313, 4321, 4325, 4326, 4337, 4341, 4345, 4350, 4361, 4366, 4372, 4377, 4381, 4383
 4396, 4398, 4405, 4407, 4409, 4412, 4415, 4416, 4421, 4424, 4425, 4426, 4427, 4429, 4433, 4440
 4452, 4461, 4470, 4473, 4482, 4485, 4491, 4492, 4493, 4495, 4497, 4500, 4503, 4510, 4513, 4518
 4520, 4521, 4527, 4530, 4533, 4535, 4540, 4543, 4544, 4547, 4556, 4571, 4572, 4573, 4577, 4579
 4581, 4587, 4594, 4598, 4601, 4603, 4604, 4608, 4618, 4620, 4624, 4626, 4629, 4632, 4633, 4638
 4641, 4646, 4647, 4649, 4652, 4658, 4661, 4662, 4663, 4670, 4673, 4674, 4676, 4678, 4684, 4687
 4690, 4692, 4693, 4701, 4703, 4704, 4705, 4718, 4720, 4722, 4727, 4728, 4732, 4734, 4735, 4736
 4740, 4742, 4748, 4755, 4761, 4766, 4768, 4769, 4778, 4781, 4782, 4783, 4786, 4794, 4797, 4803
 4808, 4809, 4810, 4811, 4812, 4815, 4816, 4823, 4829, 4835, 4836, 4844, 4845, 4847, 4851, 4857
 4860, 4862, 4864, 4868, 4875, 4876, 4882, 4893, 4894, 4895, 4898, 4901, 4903, 4904, 4905, 4909
 4912, 4914, 4919, 4921, 4924, 4930, 4932, 4936, 4940, 4943, 4946, 4961, 4962, 4963, 4966, 4967
 4971, 4972, 4976, 4983, 4987, 4996, 4997, 5000, 5004, 5007, 5008, 5010, 5011, 5013, 5021, 5022
 5042, 5045, 5046, 5049, 5052, 5054, 5058, 5068, 5074, 5075, 5081, 5088, 5089, 5096, 5098, 5105
 5112, 5113, 5117, 5126, 5129, 5133, 5134, 5152, 5167, 5174, 5179, 5184, 5187, 5194, 5206, 5223
 5226, 5227, 5230, 5231, 5235, 5237, 5242, 5246, 5252, 5253, 5257, 5258, 5259, 5261, 5262, 5263
 5284, 5287, 5288, 5315, 5317, 5319, 5320, 5322, 5323, 5326, 5338, 5347, 5351, 5352, 5354, 5368
 5369, 5371, 5375, 5376, 5383, 5384, 5385, 5388, 5390, 5402, 5442, 5443, 5453, 5467, 5500, 5501
 5545, 5550, 5565, 5604, 5638, 5643, 5648, 5654, 5656, 5662, 5664, 5669, 5689, 5700, 5706, 5733
 5735, 5747, 5774, 5777, 5782, 5783, 5871, 5917, 5937, 6288, 6300, 6751
*Elset, elset=_ContactFace_S1, internal
 1725, 2243, 2434, 2622, 2724, 2756, 3029, 3030, 3049, 3096, 3114, 3135, 3149, 3158, 3176, 3204
 3216, 4013, 4193, 4822, 4941, 5819, 6059, 6694
*Elset, elset=_ContactFace_S4, internal
 2118, 2575, 2644, 2671, 2711, 3196, 3249, 3278, 3499, 3747, 3864, 4089, 5473, 5478, 5726, 5842
 5968, 6321, 6576, 6918
*Elset, elset=_ContactFace_S2, internal
 2365, 2506, 2527, 2599, 2635, 2668, 2676, 2682, 2689, 2748, 2765, 2858, 2902, 3061, 3086, 3115
 3131, 3139, 3146, 3159, 3166, 3171, 3198, 3205, 3209, 3222, 3908, 4037, 4411, 4765, 4767, 5646
*Surface, type=ELEMENT, name=ContactFace
_ContactFace_S3, S3
_ContactFace_S1, S1
_ContactFace_S4, S4
_ContactFace_S2, S2
*Elset, elset=_EndFaces_S3, internal
    2,    6,   19,   23,   39,   47,   65,   83,   86,   90,  100,  105,  109,  117,  120,  123
  128,  130,  132,  136,  141,  144,  147,  153,  154,  157,  158,  160,  165,  168,  175,  179
  180,  184,  187,  189,  192,  200,  241,  245,  266,  268,  269,  277,  282,  290,  292,  313
  321,  332,  334,  363,  374,  377,  380,  383,  384,  386,  389,  390,  401,  408,  411,  414
  422,  424,  428,  438,  466,  476,  489,  546,  558,  560,  569,  584,  602,  605,  629,  644
  646,  651,  666,  672,  709,  716,  729, 7104, 7110, 7114, 7115, 7117, 7119, 7122, 7129, 7136
 7141, 7149, 7153, 7159, 7160, 7166, 7178, 7180, 7182, 7185, 7191, 7193, 7196, 7197, 7200, 7205
 7212, 7221, 7225, 7233, 7237, 7242, 7246, 7252, 7266, 7291, 7295, 7298, 7301, 7312, 7314, 7329
 7330, 7332, 7334, 7337, 7340, 7350, 7351, 7368, 7370, 7373, 7383, 7400, 7438, 7443, 7451, 7470
 7478, 7479, 7493, 7532, 7535, 7574, 7600, 7608, 7625, 7639, 7643, 7644, 7646, 7647, 7784
*Elset, elset=_EndFaces_S2, internal
    9,  121,  203,  208,  218,  224,  234,  261,  263,  272,  300,  305,  312,  315,  326,  337
  345,  359,  361,  372,  398,  417,  429,  431,  443,  451,  463,  464,  471,  497,  543,  570
  601,  613,  625,  647,  668,  681,  705,  718,  737,  742, 7269, 7273, 7302, 7315, 7320, 7322
 7325, 7357, 7364, 7367, 7375, 7376, 7377, 7386, 7388, 7398, 7408, 7410, 7412, 7422, 7425, 7432
 7435, 7447, 7449, 7464, 7474, 7482, 7491, 7495, 7501, 7502, 7519, 7551, 7556, 7582, 7598, 7618
 7631, 7637, 7662, 7664, 7672, 7693, 7697, 7703, 7719, 7728, 7729, 7763, 7764, 7783, 7788
*Elset, elset=_EndFaces_S1, internal
   28,  199,  240,  248,  257,  262,  267,  286,  299,  302,  311,  328,  354,  356,  368,  369
  396,  397,  445,  468,  480,  487,  531,  562,  630,  710,  713, 7259, 7260, 7268, 7282, 7290
 7292, 7294, 7307, 7349, 7385, 7401, 7453, 7457, 7490, 7537, 7541, 7543, 7546, 7612, 7692, 7753
*Elset, elset=_EndFaces_S4, internal
   34,   37,   57,   74,  232,  236,  250,  255,  281,  330,  335,  349,  367,  373,  382,  393
  410,  427,  444,  449,  457,  537,  540,  557,  653,  655,  680,  684,  736, 7215, 7224, 7227
 7262, 7264, 7299, 7303, 7305, 7323, 7360, 7363, 7381, 7396, 7397, 7407, 7418, 7421, 7426, 7428
 7430, 7440, 7463, 7466, 7473, 7494, 7503, 7509, 7522, 7538, 7539, 7590, 7671, 7674, 7691, 7698
 7736, 7737, 7747, 7786
*Surface, type=ELEMENT, name=EndFaces
_EndFaces_S3, S3
_EndFaces_S2, S2
_EndFaces_S4, S4
_EndFaces_S1, S1
** Section: Sec_Roller_ZincSteel
*Solid Section, elset=_PickedSet6, material=Roller_E193GPa
,
*End Part
**  
**
** ASSEMBLY
**
*Assembly, name=Assembly
**  
*Instance, name=ActiveLayer-1, part=ActiveLayer
          0.,           0.,         -50.
*End Instance
**  
*Instance, name=LowerRoller-1, part=ElasticRoller_WithShoulders
          0.,         -50.,         -70.
*End Instance
**  
*Instance, name=UpperRoller-1, part=ElasticRoller_WithShoulders
          0.,        50.15,         -70.
*End Instance
**  
*Node
      1,           0.,   50.1500015,           0.
*Node
      2,           0.,         -50.,           0.
*Elset, elset=MassScale_Active_Critical, instance=ActiveLayer-1, generate
    1,  4500,     1
*Nset, nset=RP_LowerRoller
 2,
*Nset, nset=RP_UpperRoller
 1,
*Nset, nset=Sheet_Active, instance=ActiveLayer-1, generate
    1,  5796,     1
*Elset, elset=Sheet_Active, instance=ActiveLayer-1, generate
    1,  4500,     1
*Nset, nset=Sheet_All, instance=ActiveLayer-1, generate
    1,  5796,     1
*Elset, elset=Sheet_All, instance=ActiveLayer-1, generate
    1,  4500,     1
*Elset, elset=_Sheet_BackFace_S5, internal, instance=ActiveLayer-1
 3581, 3582, 3583, 3584, 3585, 3586, 3587, 3588, 3589, 3590, 3591, 3592, 3593, 3594, 3595, 3596
 3597, 3598, 3599, 3600, 3781, 3782, 3783, 3784, 3785, 3786, 3787, 3788, 3789, 3790, 3791, 3792
 3793, 3794, 3795, 3796, 3797, 3798, 3799, 3800, 3981, 3982, 3983, 3984, 3985, 3986, 3987, 3988
 3989, 3990, 3991, 3992, 3993, 3994, 3995, 3996, 3997, 3998, 3999, 4000, 4181, 4182, 4183, 4184
 4185, 4186, 4187, 4188, 4189, 4190, 4191, 4192, 4193, 4194, 4195, 4196, 4197, 4198, 4199, 4200
 4381, 4382, 4383, 4384, 4385, 4386, 4387, 4388, 4389, 4390, 4391, 4392, 4393, 4394, 4395, 4396
 4397, 4398, 4399, 4400
*Surface, type=ELEMENT, name=Sheet_BackFace
_Sheet_BackFace_S5, S5
*Elset, elset=_Sheet_FrontFace_S2, internal, instance=ActiveLayer-1, generate
 4401,  4500,     1
*Surface, type=ELEMENT, name=Sheet_FrontFace
_Sheet_FrontFace_S2, S2
** Constraint: Couple_Lower_EndFaces_to_RP
*Coupling, constraint name=Couple_Lower_EndFaces_to_RP, ref node=RP_LowerRoller, surface=LowerRoller-1.EndFaces
*Kinematic
** Constraint: Couple_Upper_EndFaces_to_RP
*Coupling, constraint name=Couple_Upper_EndFaces_to_RP, ref node=RP_UpperRoller, surface=UpperRoller-1.EndFaces
*Kinematic
*End Assembly
*Amplitude, name=Amp_Clamp_Drop, time=TOTAL TIME, definition=SMOOTH STEP
             0.,              0.,            0.05,              1.,            0.85,              1.
*Amplitude, name=Amp_Rolling_Spin, definition=SMOOTH STEP
             0.,              0.,            0.05,              1.,            0.75,              1.
** 
** MATERIALS
** 
*Material, name=ActiveLayer_Porous_Calibratable
*Cap Plasticity
4.,  65.,  0.8,  18., 0.02,   1.
*Cap Hardening
  18.,   0.
 18.6, 0.05
 19.8,  0.1
 21.6, 0.15
  24., 0.18
  27.,  0.2
  33., 0.22
  42., 0.24
  57., 0.26
  81., 0.28
 117.,  0.3
 144., 0.31
 180., 0.32
 222., 0.33
*Density
 2.55e-09,
*Elastic
6500., 0.01
*Material, name=Roller_E193GPa
*Density
 7.93e-09,
*Elastic
193000., 0.2
** 
** INTERACTION PROPERTIES
** 
*Surface Interaction, name=Contact_BottomRoller_Active_mu0p1
*Friction
 0.1,
*Surface Behavior, pressure-overclosure=HARD
*Surface Interaction, name=Contact_TopRoller_Active_mu0p1
*Friction
 0.1,
*Surface Behavior, pressure-overclosure=HARD
** 
** BOUNDARY CONDITIONS
** 
** Name: BC_Lower_RP_Support Type: 位移/转角
*Boundary
RP_LowerRoller, 1, 1
RP_LowerRoller, 2, 2
RP_LowerRoller, 3, 3
RP_LowerRoller, 4, 4
RP_LowerRoller, 5, 5
** Name: BC_Upper_RP_LateralSupport Type: 位移/转角
*Boundary
RP_UpperRoller, 1, 1
RP_UpperRoller, 3, 3
RP_UpperRoller, 4, 4
RP_UpperRoller, 5, 5
** ----------------------------------------------------------------
** 
** STEP: Clamp_Down
** 
*Step, name=Clamp_Down, nlgeom=YES
*Dynamic, Explicit
, 0.05
*Bulk Viscosity
0.12, 1.2
** Mass Scaling: Semi-Automatic
**               Whole Model
*Fixed Mass Scaling, dt=5e-06, type=below min
** 
** BOUNDARY CONDITIONS
** 
** Name: BC_Lower_NoSpin_ClampHold Type: 位移/转角
*Boundary
RP_LowerRoller, 6, 6
** Name: BC_Upper_NoSpin_ClampHold Type: 位移/转角
*Boundary
RP_UpperRoller, 6, 6
** Name: BC_Upper_RP_Drop Type: 位移/转角
*Boundary, amplitude=Amp_Clamp_Drop
RP_UpperRoller, 2, 2, -0.015
** 
** LOADS
** 
** Name: Load_Back_Tension   Type: Surface traction
*Dsload, follower=NO
Sheet_BackFace, TRVEC, 0.01, -1., 0., 0.
** Name: Load_Front_Tension   Type: Surface traction
*Dsload, follower=NO
Sheet_FrontFace, TRVEC, 0.01, 1., 0., 0.
** 
** INTERACTIONS
** 
** Interaction: BottomRoller_to_ActiveFilm
*Contact Pair, op=ADD, interaction=Contact_BottomRoller_Active_mu0p1, mechanical constraint=PENALTY, cpset=BottomRoller_to_ActiveFilm
LowerRoller-1.ContactFace, ActiveLayer-1.Bottom
** Interaction: TopRoller_to_ActiveFilm
*Contact Pair, op=ADD, interaction=Contact_TopRoller_Active_mu0p1, mechanical constraint=PENALTY, cpset=TopRoller_to_ActiveFilm
UpperRoller-1.ContactFace, ActiveLayer-1.Top
** 
** OUTPUT REQUESTS
** 
*Restart, write, number interval=1, time marks=NO
** 
** FIELD OUTPUT: F_Sheet_StressStrain
** 
*Output, field, number interval=80
*Node Output, nset=Sheet_All, variable=PRESELECT
*Element Output, elset=Sheet_All, directions=YES
LE, PE, PEEQ, PRESS, S
*Contact Output, variable=PRESELECT
** 
** HISTORY OUTPUT: H-Output-1
** 
*Output, history, variable=PRESELECT
** 
** HISTORY OUTPUT: H_Energy
** 
*Output, history, time interval=0.0002
*Energy Output
ALLAE, ALLIE, ALLKE, ALLMW, ALLPD, ALLSE, ALLWK
** 
** HISTORY OUTPUT: H_LowerRoller_RP
** 
*Node Output, nset=RP_LowerRoller
RF1, RF2, RF3, RM3, U2, UR3, VR3
** 
** HISTORY OUTPUT: H_UpperRoller_RP
** 
*Node Output, nset=RP_UpperRoller
RF1, RF2, RF3, RM3, U2, UR3, VR3
*End Step
** ----------------------------------------------------------------
** 
** STEP: Hold_Clamp
** 
*Step, name=Hold_Clamp, nlgeom=YES
*Dynamic, Explicit
, 0.05
*Bulk Viscosity
0.12, 1.2
** Mass Scaling: Semi-Automatic
**               Whole Model
*Fixed Mass Scaling, dt=5e-06, type=below min
** 
** OUTPUT REQUESTS
** 
*Restart, write, number interval=1, time marks=NO
** 
** FIELD OUTPUT: F_Sheet_StressStrain
** 
*Output, field, number interval=80
*Node Output, nset=Sheet_All, variable=PRESELECT
*Element Output, elset=Sheet_All, directions=YES
LE, PE, PEEQ, PRESS, S
*Contact Output, variable=PRESELECT
** 
** HISTORY OUTPUT: H-Output-1
** 
*Output, history, variable=PRESELECT
** 
** HISTORY OUTPUT: H_Energy
** 
*Output, history, time interval=0.0002
*Energy Output
ALLAE, ALLIE, ALLKE, ALLMW, ALLPD, ALLSE, ALLWK
** 
** HISTORY OUTPUT: H_LowerRoller_RP
** 
*Node Output, nset=RP_LowerRoller
RF1, RF2, RF3, RM3, U2, UR3, VR3
** 
** HISTORY OUTPUT: H_UpperRoller_RP
** 
*Node Output, nset=RP_UpperRoller
RF1, RF2, RF3, RM3, U2, UR3, VR3
*End Step
** ----------------------------------------------------------------
** 
** STEP: Rolling
** 
*Step, name=Rolling, nlgeom=YES
*Dynamic, Explicit
, 0.75
*Bulk Viscosity
0.12, 1.2
** Mass Scaling: Semi-Automatic
**               Whole Model
*Fixed Mass Scaling, dt=5e-06, type=below min
** 
** BOUNDARY CONDITIONS
** 
** Name: BC_Lower_NoSpin_ClampHold Type: 位移/转角
*Boundary, op=NEW
** Name: BC_Lower_RP_Support Type: 位移/转角
*Boundary, op=NEW
RP_LowerRoller, 1, 1
RP_LowerRoller, 2, 2
RP_LowerRoller, 3, 3
RP_LowerRoller, 4, 4
RP_LowerRoller, 5, 5
** Name: BC_Lower_Rotation Type: 速度/角速度
*Boundary, op=NEW, amplitude=Amp_Rolling_Spin, type=VELOCITY
RP_LowerRoller, 6, 6, -0.166667
** Name: BC_Upper_NoSpin_ClampHold Type: 位移/转角
*Boundary, op=NEW
** Name: BC_Upper_RP_Drop Type: 位移/转角
*Boundary, op=NEW, amplitude=Amp_Clamp_Drop
RP_UpperRoller, 2, 2, -0.015
** Name: BC_Upper_RP_LateralSupport Type: 位移/转角
*Boundary, op=NEW
RP_UpperRoller, 1, 1
RP_UpperRoller, 3, 3
RP_UpperRoller, 4, 4
RP_UpperRoller, 5, 5
** Name: BC_Upper_Rotation Type: 速度/角速度
*Boundary, op=NEW, amplitude=Amp_Rolling_Spin, type=VELOCITY
RP_UpperRoller, 6, 6, 0.266667
** 
** OUTPUT REQUESTS
** 
*Restart, write, number interval=1, time marks=NO
** 
** FIELD OUTPUT: F_Sheet_StressStrain
** 
*Output, field, number interval=80
*Node Output, nset=Sheet_All, variable=PRESELECT
*Element Output, elset=Sheet_All, directions=YES
LE, PE, PEEQ, PRESS, S
*Contact Output, variable=PRESELECT
** 
** HISTORY OUTPUT: H-Output-1
** 
*Output, history, variable=PRESELECT
** 
** HISTORY OUTPUT: H_Energy
** 
*Output, history, time interval=0.003
*Energy Output
ALLAE, ALLIE, ALLKE, ALLMW, ALLPD, ALLSE, ALLWK
** 
** HISTORY OUTPUT: H_LowerRoller_RP
** 
*Node Output, nset=RP_LowerRoller
RF1, RF2, RF3, RM3, U2, UR3, VR3
** 
** HISTORY OUTPUT: H_UpperRoller_RP
** 
*Node Output, nset=RP_UpperRoller
RF1, RF2, RF3, RM3, U2, UR3, VR3
*End Step
