*Heading
 Local static symmetric normal press model with rigid rollers
** Job name: RollPress_Static_LocalSym_50mm_RigidRoller Model name: RollPress_Static_LocalSym_50mm_RigidRoller
** Generated by: Abaqus/CAE 2025
*Preprint, echo=NO, model=NO, history=NO, contact=NO
**
** PARTS
**
*Part, name=ActiveLayer
*Node
      1,          50.,           0.,         12.5
      2,          50.,  0.150000006,         12.5
      3,          50.,  0.150000006,          25.
      4,          50.,           0.,          25.
      5,           0.,  0.150000006,         12.5
      6,           0.,  0.150000006,          25.
      7,           0.,           0.,          25.
      8,           0.,           0.,         12.5
      9,          50.,  0.150000006,           5.
     10,          50.,           0.,           5.
     11,          50.,           0.,           1.
     12,          50.,  0.150000006,           1.
     13,           0.,           0.,           5.
     14,           0.,           0.,           1.
     15,           0.,  0.150000006,           1.
     16,           0.,  0.150000006,           5.
     17,           0.,  0.150000006,           0.
     18,           0.,           0.,           0.
     19,          50.,  0.150000006,           0.
     20,          50.,           0.,           0.
     21,          50., 0.0299999993,         12.5
     22,          50., 0.0599999987,         12.5
     23,          50., 0.0900000036,         12.5
     24,          50.,  0.119999997,         12.5
     25,          50.,  0.150000006,          15.
     26,          50.,  0.150000006,         17.5
     27,          50.,  0.150000006,          20.
     28,          50.,  0.150000006,         22.5
     29,          50.,  0.119999997,          25.
     30,          50., 0.0900000036,          25.
     31,          50., 0.0599999987,          25.
     32,          50., 0.0299999993,          25.
     33,          50.,           0.,         22.5
     34,          50.,           0.,          20.
     35,          50.,           0.,         17.5
     36,          50.,           0.,          15.
     37,           0.,  0.119999997,         12.5
     38,           0., 0.0900000036,         12.5
     39,           0., 0.0599999987,         12.5
     40,           0., 0.0299999993,         12.5
     41,           0.,  0.150000006,         22.5
     42,           0.,  0.150000006,          20.
     43,           0.,  0.150000006,         17.5
     44,           0.,  0.150000006,          15.
     45,           0., 0.0299999993,          25.
     46,           0., 0.0599999987,          25.
     47,           0., 0.0900000036,          25.
     48,           0.,  0.119999997,          25.
     49,           0.,           0.,          15.
     50,           0.,           0.,         17.5
     51,           0.,           0.,          20.
     52,           0.,           0.,         22.5
     53,         47.5,           0.,          25.
     54,          45.,           0.,          25.
     55,         42.5,           0.,          25.
     56,          40.,           0.,          25.
     57,         37.5,           0.,          25.
     58,          35.,           0.,          25.
     59,         32.5,           0.,          25.
     60,          30.,           0.,          25.
     61,         27.5,           0.,          25.
     62,          25.,           0.,          25.
     63,         22.5,           0.,          25.
     64,          20.,           0.,          25.
     65,         17.5,           0.,          25.
     66,          15.,           0.,          25.
     67,         12.5,           0.,          25.
     68,          10.,           0.,          25.
     69,          7.5,           0.,          25.
     70,           5.,           0.,          25.
     71,          2.5,           0.,          25.
     72,          2.5,           0.,         12.5
     73,           5.,           0.,         12.5
     74,          7.5,           0.,         12.5
     75,          10.,           0.,         12.5
     76,         12.5,           0.,         12.5
     77,          15.,           0.,         12.5
     78,         17.5,           0.,         12.5
     79,          20.,           0.,         12.5
     80,         22.5,           0.,         12.5
     81,          25.,           0.,         12.5
     82,         27.5,           0.,         12.5
     83,          30.,           0.,         12.5
     84,         32.5,           0.,         12.5
     85,          35.,           0.,         12.5
     86,         37.5,           0.,         12.5
     87,          40.,           0.,         12.5
     88,         42.5,           0.,         12.5
     89,          45.,           0.,         12.5
     90,         47.5,           0.,         12.5
     91,          2.5,  0.150000006,          25.
     92,           5.,  0.150000006,          25.
     93,          7.5,  0.150000006,          25.
     94,          10.,  0.150000006,          25.
     95,         12.5,  0.150000006,          25.
     96,          15.,  0.150000006,          25.
     97,         17.5,  0.150000006,          25.
     98,          20.,  0.150000006,          25.
     99,         22.5,  0.150000006,          25.
    100,          25.,  0.150000006,          25.
    101,         27.5,  0.150000006,          25.
    102,          30.,  0.150000006,          25.
    103,         32.5,  0.150000006,          25.
    104,          35.,  0.150000006,          25.
    105,         37.5,  0.150000006,          25.
    106,          40.,  0.150000006,          25.
    107,         42.5,  0.150000006,          25.
    108,          45.,  0.150000006,          25.
    109,         47.5,  0.150000006,          25.
    110,         47.5,  0.150000006,         12.5
    111,          45.,  0.150000006,         12.5
    112,         42.5,  0.150000006,         12.5
    113,          40.,  0.150000006,         12.5
    114,         37.5,  0.150000006,         12.5
    115,          35.,  0.150000006,         12.5
    116,         32.5,  0.150000006,         12.5
    117,          30.,  0.150000006,         12.5
    118,         27.5,  0.150000006,         12.5
    119,          25.,  0.150000006,         12.5
    120,         22.5,  0.150000006,         12.5
    121,          20.,  0.150000006,         12.5
    122,         17.5,  0.150000006,         12.5
    123,          15.,  0.150000006,         12.5
    124,         12.5,  0.150000006,         12.5
    125,          10.,  0.150000006,         12.5
    126,          7.5,  0.150000006,         12.5
    127,           5.,  0.150000006,         12.5
    128,          2.5,  0.150000006,         12.5
    129,          50.,  0.119999997,           5.
    130,          50., 0.0900000036,           5.
    131,          50., 0.0599999987,           5.
    132,          50., 0.0299999993,           5.
    133,          50.,           0.,   4.42857122
    134,          50.,           0.,   3.85714293
    135,          50.,           0.,   3.28571439
    136,          50.,           0.,   2.71428561
    137,          50.,           0.,   2.14285707
    138,          50.,           0.,   1.57142854
    139,          50., 0.0299999993,           1.
    140,          50., 0.0599999987,           1.
    141,          50., 0.0900000036,           1.
    142,          50.,  0.119999997,           1.
    143,          50.,  0.150000006,   1.57142854
    144,          50.,  0.150000006,   2.14285707
    145,          50.,  0.150000006,   2.71428561
    146,          50.,  0.150000006,   3.28571439
    147,          50.,  0.150000006,   3.85714293
    148,          50.,  0.150000006,   4.42857122
    149,           0., 0.0299999993,           5.
    150,           0., 0.0599999987,           5.
    151,           0., 0.0900000036,           5.
    152,           0.,  0.119999997,           5.
    153,           0.,           0.,   1.57142854
    154,           0.,           0.,   2.14285707
    155,           0.,           0.,   2.71428561
    156,           0.,           0.,   3.28571439
    157,           0.,           0.,   3.85714293
    158,           0.,           0.,   4.42857122
    159,           0.,  0.119999997,           1.
    160,           0., 0.0900000036,           1.
    161,           0., 0.0599999987,           1.
    162,           0., 0.0299999993,           1.
    163,           0.,  0.150000006,   4.42857122
    164,           0.,  0.150000006,   3.85714293
    165,           0.,  0.150000006,   3.28571439
    166,           0.,  0.150000006,   2.71428561
    167,           0.,  0.150000006,   2.14285707
    168,           0.,  0.150000006,   1.57142854
    169,         47.5,  0.150000006,           1.
    170,          45.,  0.150000006,           1.
    171,         42.5,  0.150000006,           1.
    172,          40.,  0.150000006,           1.
    173,         37.5,  0.150000006,           1.
    174,          35.,  0.150000006,           1.
    175,         32.5,  0.150000006,           1.
    176,          30.,  0.150000006,           1.
    177,         27.5,  0.150000006,           1.
    178,          25.,  0.150000006,           1.
    179,         22.5,  0.150000006,           1.
    180,          20.,  0.150000006,           1.
    181,         17.5,  0.150000006,           1.
    182,          15.,  0.150000006,           1.
    183,         12.5,  0.150000006,           1.
    184,          10.,  0.150000006,           1.
    185,          7.5,  0.150000006,           1.
    186,           5.,  0.150000006,           1.
    187,          2.5,  0.150000006,           1.
    188,          2.5,  0.150000006,           5.
    189,           5.,  0.150000006,           5.
    190,          7.5,  0.150000006,           5.
    191,          10.,  0.150000006,           5.
    192,         12.5,  0.150000006,           5.
    193,          15.,  0.150000006,           5.
    194,         17.5,  0.150000006,           5.
    195,          20.,  0.150000006,           5.
    196,         22.5,  0.150000006,           5.
    197,          25.,  0.150000006,           5.
    198,         27.5,  0.150000006,           5.
    199,          30.,  0.150000006,           5.
    200,         32.5,  0.150000006,           5.
    201,          35.,  0.150000006,           5.
    202,         37.5,  0.150000006,           5.
    203,          40.,  0.150000006,           5.
    204,         42.5,  0.150000006,           5.
    205,          45.,  0.150000006,           5.
    206,         47.5,  0.150000006,           5.
    207,          2.5,           0.,           1.
    208,           5.,           0.,           1.
    209,          7.5,           0.,           1.
    210,          10.,           0.,           1.
    211,         12.5,           0.,           1.
    212,          15.,           0.,           1.
    213,         17.5,           0.,           1.
    214,          20.,           0.,           1.
    215,         22.5,           0.,           1.
    216,          25.,           0.,           1.
    217,         27.5,           0.,           1.
    218,          30.,           0.,           1.
    219,         32.5,           0.,           1.
    220,          35.,           0.,           1.
    221,         37.5,           0.,           1.
    222,          40.,           0.,           1.
    223,         42.5,           0.,           1.
    224,          45.,           0.,           1.
    225,         47.5,           0.,           1.
    226,         47.5,           0.,           5.
    227,          45.,           0.,           5.
    228,         42.5,           0.,           5.
    229,          40.,           0.,           5.
    230,         37.5,           0.,           5.
    231,          35.,           0.,           5.
    232,         32.5,           0.,           5.
    233,          30.,           0.,           5.
    234,         27.5,           0.,           5.
    235,          25.,           0.,           5.
    236,         22.5,           0.,           5.
    237,          20.,           0.,           5.
    238,         17.5,           0.,           5.
    239,          15.,           0.,           5.
    240,         12.5,           0.,           5.
    241,          10.,           0.,           5.
    242,          7.5,           0.,           5.
    243,           5.,           0.,           5.
    244,          2.5,           0.,           5.
    245,          50.,           0.,          11.
    246,          50.,           0.,          9.5
    247,          50.,           0.,           8.
    248,          50.,           0.,          6.5
    249,          50.,  0.150000006,          6.5
    250,          50.,  0.150000006,           8.
    251,          50.,  0.150000006,          9.5
    252,          50.,  0.150000006,          11.
    253,           0.,           0.,          6.5
    254,           0.,           0.,           8.
    255,           0.,           0.,          9.5
    256,           0.,           0.,          11.
    257,           0.,  0.150000006,          11.
    258,           0.,  0.150000006,          9.5
    259,           0.,  0.150000006,           8.
    260,           0.,  0.150000006,          6.5
    261,           0.,  0.150000006,  0.666666687
    262,           0.,  0.150000006,  0.333333343
    263,           0.,  0.119999997,           0.
    264,           0., 0.0900000036,           0.
    265,           0., 0.0599999987,           0.
    266,           0., 0.0299999993,           0.
    267,           0.,           0.,  0.333333343
    268,           0.,           0.,  0.666666687
    269,          50.,  0.150000006,  0.333333343
    270,          50.,  0.150000006,  0.666666687
    271,          50., 0.0299999993,           0.
    272,          50., 0.0599999987,           0.
    273,          50., 0.0900000036,           0.
    274,          50.,  0.119999997,           0.
    275,          50.,           0.,  0.666666687
    276,          50.,           0.,  0.333333343
    277,          2.5,           0.,           0.
    278,           5.,           0.,           0.
    279,          7.5,           0.,           0.
    280,          10.,           0.,           0.
    281,         12.5,           0.,           0.
    282,          15.,           0.,           0.
    283,         17.5,           0.,           0.
    284,          20.,           0.,           0.
    285,         22.5,           0.,           0.
    286,          25.,           0.,           0.
    287,         27.5,           0.,           0.
    288,          30.,           0.,           0.
    289,         32.5,           0.,           0.
    290,          35.,           0.,           0.
    291,         37.5,           0.,           0.
    292,          40.,           0.,           0.
    293,         42.5,           0.,           0.
    294,          45.,           0.,           0.
    295,         47.5,           0.,           0.
    296,         47.5,  0.150000006,           0.
    297,          45.,  0.150000006,           0.
    298,         42.5,  0.150000006,           0.
    299,          40.,  0.150000006,           0.
    300,         37.5,  0.150000006,           0.
    301,          35.,  0.150000006,           0.
    302,         32.5,  0.150000006,           0.
    303,          30.,  0.150000006,           0.
    304,         27.5,  0.150000006,           0.
    305,          25.,  0.150000006,           0.
    306,         22.5,  0.150000006,           0.
    307,          20.,  0.150000006,           0.
    308,         17.5,  0.150000006,           0.
    309,          15.,  0.150000006,           0.
    310,         12.5,  0.150000006,           0.
    311,          10.,  0.150000006,           0.
    312,          7.5,  0.150000006,           0.
    313,           5.,  0.150000006,           0.
    314,          2.5,  0.150000006,           0.
    315,          50., 0.0299999993,          15.
    316,          50., 0.0599999987,          15.
    317,          50., 0.0900000036,          15.
    318,          50.,  0.119999997,          15.
    319,          50., 0.0299999993,         17.5
    320,          50., 0.0599999987,         17.5
    321,          50., 0.0900000036,         17.5
    322,          50.,  0.119999997,         17.5
    323,          50., 0.0299999993,          20.
    324,          50., 0.0599999987,          20.
    325,          50., 0.0900000036,          20.
    326,          50.,  0.119999997,          20.
    327,          50., 0.0299999993,         22.5
    328,          50., 0.0599999987,         22.5
    329,          50., 0.0900000036,         22.5
    330,          50.,  0.119999997,         22.5
    331,           0., 0.0299999993,          15.
    332,           0., 0.0599999987,          15.
    333,           0., 0.0900000036,          15.
    334,           0.,  0.119999997,          15.
    335,           0., 0.0299999993,         17.5
    336,           0., 0.0599999987,         17.5
    337,           0., 0.0900000036,         17.5
    338,           0.,  0.119999997,         17.5
    339,           0., 0.0299999993,          20.
    340,           0., 0.0599999987,          20.
    341,           0., 0.0900000036,          20.
    342,           0.,  0.119999997,          20.
    343,           0., 0.0299999993,         22.5
    344,           0., 0.0599999987,         22.5
    345,           0., 0.0900000036,         22.5
    346,           0.,  0.119999997,         22.5
    347,         47.5,           0.,          15.
    348,         47.5,           0.,         17.5
    349,         47.5,           0.,          20.
    350,         47.5,           0.,         22.5
    351,          45.,           0.,          15.
    352,          45.,           0.,         17.5
    353,          45.,           0.,          20.
    354,          45.,           0.,         22.5
    355,         42.5,           0.,          15.
    356,         42.5,           0.,         17.5
    357,         42.5,           0.,          20.
    358,         42.5,           0.,         22.5
    359,          40.,           0.,          15.
    360,          40.,           0.,         17.5
    361,          40.,           0.,          20.
    362,          40.,           0.,         22.5
    363,         37.5,           0.,          15.
    364,         37.5,           0.,         17.5
    365,         37.5,           0.,          20.
    366,         37.5,           0.,         22.5
    367,          35.,           0.,          15.
    368,          35.,           0.,         17.5
    369,          35.,           0.,          20.
    370,          35.,           0.,         22.5
    371,         32.5,           0.,          15.
    372,         32.5,           0.,         17.5
    373,         32.5,           0.,          20.
    374,         32.5,           0.,         22.5
    375,          30.,           0.,          15.
    376,          30.,           0.,         17.5
    377,          30.,           0.,          20.
    378,          30.,           0.,         22.5
    379,         27.5,           0.,          15.
    380,         27.5,           0.,         17.5
    381,         27.5,           0.,          20.
    382,         27.5,           0.,         22.5
    383,          25.,           0.,          15.
    384,          25.,           0.,         17.5
    385,          25.,           0.,          20.
    386,          25.,           0.,         22.5
    387,         22.5,           0.,          15.
    388,         22.5,           0.,         17.5
    389,         22.5,           0.,          20.
    390,         22.5,           0.,         22.5
    391,          20.,           0.,          15.
    392,          20.,           0.,         17.5
    393,          20.,           0.,          20.
    394,          20.,           0.,         22.5
    395,         17.5,           0.,          15.
    396,         17.5,           0.,         17.5
    397,         17.5,           0.,          20.
    398,         17.5,           0.,         22.5
    399,          15.,           0.,          15.
    400,          15.,           0.,         17.5
    401,          15.,           0.,          20.
    402,          15.,           0.,         22.5
    403,         12.5,           0.,          15.
    404,         12.5,           0.,         17.5
    405,         12.5,           0.,          20.
    406,         12.5,           0.,         22.5
    407,          10.,           0.,          15.
    408,          10.,           0.,         17.5
    409,          10.,           0.,          20.
    410,          10.,           0.,         22.5
    411,          7.5,           0.,          15.
    412,          7.5,           0.,         17.5
    413,          7.5,           0.,          20.
    414,          7.5,           0.,         22.5
    415,           5.,           0.,          15.
    416,           5.,           0.,         17.5
    417,           5.,           0.,          20.
    418,           5.,           0.,         22.5
    419,          2.5,           0.,          15.
    420,          2.5,           0.,         17.5
    421,          2.5,           0.,          20.
    422,          2.5,           0.,         22.5
    423,         47.5,  0.150000006,          15.
    424,         47.5,  0.150000006,         17.5
    425,         47.5,  0.150000006,          20.
    426,         47.5,  0.150000006,         22.5
    427,          45.,  0.150000006,          15.
    428,          45.,  0.150000006,         17.5
    429,          45.,  0.150000006,          20.
    430,          45.,  0.150000006,         22.5
    431,         42.5,  0.150000006,          15.
    432,         42.5,  0.150000006,         17.5
    433,         42.5,  0.150000006,          20.
    434,         42.5,  0.150000006,         22.5
    435,          40.,  0.150000006,          15.
    436,          40.,  0.150000006,         17.5
    437,          40.,  0.150000006,          20.
    438,          40.,  0.150000006,         22.5
    439,         37.5,  0.150000006,          15.
    440,         37.5,  0.150000006,         17.5
    441,         37.5,  0.150000006,          20.
    442,         37.5,  0.150000006,         22.5
    443,          35.,  0.150000006,          15.
    444,          35.,  0.150000006,         17.5
    445,          35.,  0.150000006,          20.
    446,          35.,  0.150000006,         22.5
    447,         32.5,  0.150000006,          15.
    448,         32.5,  0.150000006,         17.5
    449,         32.5,  0.150000006,          20.
    450,         32.5,  0.150000006,         22.5
    451,          30.,  0.150000006,          15.
    452,          30.,  0.150000006,         17.5
    453,          30.,  0.150000006,          20.
    454,          30.,  0.150000006,         22.5
    455,         27.5,  0.150000006,          15.
    456,         27.5,  0.150000006,         17.5
    457,         27.5,  0.150000006,          20.
    458,         27.5,  0.150000006,         22.5
    459,          25.,  0.150000006,          15.
    460,          25.,  0.150000006,         17.5
    461,          25.,  0.150000006,          20.
    462,          25.,  0.150000006,         22.5
    463,         22.5,  0.150000006,          15.
    464,         22.5,  0.150000006,         17.5
    465,         22.5,  0.150000006,          20.
    466,         22.5,  0.150000006,         22.5
    467,          20.,  0.150000006,          15.
    468,          20.,  0.150000006,         17.5
    469,          20.,  0.150000006,          20.
    470,          20.,  0.150000006,         22.5
    471,         17.5,  0.150000006,          15.
    472,         17.5,  0.150000006,         17.5
    473,         17.5,  0.150000006,          20.
    474,         17.5,  0.150000006,         22.5
    475,          15.,  0.150000006,          15.
    476,          15.,  0.150000006,         17.5
    477,          15.,  0.150000006,          20.
    478,          15.,  0.150000006,         22.5
    479,         12.5,  0.150000006,          15.
    480,         12.5,  0.150000006,         17.5
    481,         12.5,  0.150000006,          20.
    482,         12.5,  0.150000006,         22.5
    483,          10.,  0.150000006,          15.
    484,          10.,  0.150000006,         17.5
    485,          10.,  0.150000006,          20.
    486,          10.,  0.150000006,         22.5
    487,          7.5,  0.150000006,          15.
    488,          7.5,  0.150000006,         17.5
    489,          7.5,  0.150000006,          20.
    490,          7.5,  0.150000006,         22.5
    491,           5.,  0.150000006,          15.
    492,           5.,  0.150000006,         17.5
    493,           5.,  0.150000006,          20.
    494,           5.,  0.150000006,         22.5
    495,          2.5,  0.150000006,          15.
    496,          2.5,  0.150000006,         17.5
    497,          2.5,  0.150000006,          20.
    498,          2.5,  0.150000006,         22.5
    499,         47.5, 0.0299999993,         12.5
    500,         47.5, 0.0599999987,         12.5
    501,         47.5, 0.0900000036,         12.5
    502,         47.5,  0.119999997,         12.5
    503,          45., 0.0299999993,         12.5
    504,          45., 0.0599999987,         12.5
    505,          45., 0.0900000036,         12.5
    506,          45.,  0.119999997,         12.5
    507,         42.5, 0.0299999993,         12.5
    508,         42.5, 0.0599999987,         12.5
    509,         42.5, 0.0900000036,         12.5
    510,         42.5,  0.119999997,         12.5
    511,          40., 0.0299999993,         12.5
    512,          40., 0.0599999987,         12.5
    513,          40., 0.0900000036,         12.5
    514,          40.,  0.119999997,         12.5
    515,         37.5, 0.0299999993,         12.5
    516,         37.5, 0.0599999987,         12.5
    517,         37.5, 0.0900000036,         12.5
    518,         37.5,  0.119999997,         12.5
    519,          35., 0.0299999993,         12.5
    520,          35., 0.0599999987,         12.5
    521,          35., 0.0900000036,         12.5
    522,          35.,  0.119999997,         12.5
    523,         32.5, 0.0299999993,         12.5
    524,         32.5, 0.0599999987,         12.5
    525,         32.5, 0.0900000036,         12.5
    526,         32.5,  0.119999997,         12.5
    527,          30., 0.0299999993,         12.5
    528,          30., 0.0599999987,         12.5
    529,          30., 0.0900000036,         12.5
    530,          30.,  0.119999997,         12.5
    531,         27.5, 0.0299999993,         12.5
    532,         27.5, 0.0599999987,         12.5
    533,         27.5, 0.0900000036,         12.5
    534,         27.5,  0.119999997,         12.5
    535,          25., 0.0299999993,         12.5
    536,          25., 0.0599999987,         12.5
    537,          25., 0.0900000036,         12.5
    538,          25.,  0.119999997,         12.5
    539,         22.5, 0.0299999993,         12.5
    540,         22.5, 0.0599999987,         12.5
    541,         22.5, 0.0900000036,         12.5
    542,         22.5,  0.119999997,         12.5
    543,          20., 0.0299999993,         12.5
    544,          20., 0.0599999987,         12.5
    545,          20., 0.0900000036,         12.5
    546,          20.,  0.119999997,         12.5
    547,         17.5, 0.0299999993,         12.5
    548,         17.5, 0.0599999987,         12.5
    549,         17.5, 0.0900000036,         12.5
    550,         17.5,  0.119999997,         12.5
    551,          15., 0.0299999993,         12.5
    552,          15., 0.0599999987,         12.5
    553,          15., 0.0900000036,         12.5
    554,          15.,  0.119999997,         12.5
    555,         12.5, 0.0299999993,         12.5
    556,         12.5, 0.0599999987,         12.5
    557,         12.5, 0.0900000036,         12.5
    558,         12.5,  0.119999997,         12.5
    559,          10., 0.0299999993,         12.5
    560,          10., 0.0599999987,         12.5
    561,          10., 0.0900000036,         12.5
    562,          10.,  0.119999997,         12.5
    563,          7.5, 0.0299999993,         12.5
    564,          7.5, 0.0599999987,         12.5
    565,          7.5, 0.0900000036,         12.5
    566,          7.5,  0.119999997,         12.5
    567,           5., 0.0299999993,         12.5
    568,           5., 0.0599999987,         12.5
    569,           5., 0.0900000036,         12.5
    570,           5.,  0.119999997,         12.5
    571,          2.5, 0.0299999993,         12.5
    572,          2.5, 0.0599999987,         12.5
    573,          2.5, 0.0900000036,         12.5
    574,          2.5,  0.119999997,         12.5
    575,         47.5, 0.0299999993,          25.
    576,         47.5, 0.0599999987,          25.
    577,         47.5, 0.0900000036,          25.
    578,         47.5,  0.119999997,          25.
    579,          45., 0.0299999993,          25.
    580,          45., 0.0599999987,          25.
    581,          45., 0.0900000036,          25.
    582,          45.,  0.119999997,          25.
    583,         42.5, 0.0299999993,          25.
    584,         42.5, 0.0599999987,          25.
    585,         42.5, 0.0900000036,          25.
    586,         42.5,  0.119999997,          25.
    587,          40., 0.0299999993,          25.
    588,          40., 0.0599999987,          25.
    589,          40., 0.0900000036,          25.
    590,          40.,  0.119999997,          25.
    591,         37.5, 0.0299999993,          25.
    592,         37.5, 0.0599999987,          25.
    593,         37.5, 0.0900000036,          25.
    594,         37.5,  0.119999997,          25.
    595,          35., 0.0299999993,          25.
    596,          35., 0.0599999987,          25.
    597,          35., 0.0900000036,          25.
    598,          35.,  0.119999997,          25.
    599,         32.5, 0.0299999993,          25.
    600,         32.5, 0.0599999987,          25.
    601,         32.5, 0.0900000036,          25.
    602,         32.5,  0.119999997,          25.
    603,          30., 0.0299999993,          25.
    604,          30., 0.0599999987,          25.
    605,          30., 0.0900000036,          25.
    606,          30.,  0.119999997,          25.
    607,         27.5, 0.0299999993,          25.
    608,         27.5, 0.0599999987,          25.
    609,         27.5, 0.0900000036,          25.
    610,         27.5,  0.119999997,          25.
    611,          25., 0.0299999993,          25.
    612,          25., 0.0599999987,          25.
    613,          25., 0.0900000036,          25.
    614,          25.,  0.119999997,          25.
    615,         22.5, 0.0299999993,          25.
    616,         22.5, 0.0599999987,          25.
    617,         22.5, 0.0900000036,          25.
    618,         22.5,  0.119999997,          25.
    619,          20., 0.0299999993,          25.
    620,          20., 0.0599999987,          25.
    621,          20., 0.0900000036,          25.
    622,          20.,  0.119999997,          25.
    623,         17.5, 0.0299999993,          25.
    624,         17.5, 0.0599999987,          25.
    625,         17.5, 0.0900000036,          25.
    626,         17.5,  0.119999997,          25.
    627,          15., 0.0299999993,          25.
    628,          15., 0.0599999987,          25.
    629,          15., 0.0900000036,          25.
    630,          15.,  0.119999997,          25.
    631,         12.5, 0.0299999993,          25.
    632,         12.5, 0.0599999987,          25.
    633,         12.5, 0.0900000036,          25.
    634,         12.5,  0.119999997,          25.
    635,          10., 0.0299999993,          25.
    636,          10., 0.0599999987,          25.
    637,          10., 0.0900000036,          25.
    638,          10.,  0.119999997,          25.
    639,          7.5, 0.0299999993,          25.
    640,          7.5, 0.0599999987,          25.
    641,          7.5, 0.0900000036,          25.
    642,          7.5,  0.119999997,          25.
    643,           5., 0.0299999993,          25.
    644,           5., 0.0599999987,          25.
    645,           5., 0.0900000036,          25.
    646,           5.,  0.119999997,          25.
    647,          2.5, 0.0299999993,          25.
    648,          2.5, 0.0599999987,          25.
    649,          2.5, 0.0900000036,          25.
    650,          2.5,  0.119999997,          25.
    651,          50.,  0.119999997,   4.42857122
    652,          50., 0.0900000036,   4.42857122
    653,          50., 0.0599999987,   4.42857122
    654,          50., 0.0299999993,   4.42857122
    655,          50.,  0.119999997,   3.85714293
    656,          50., 0.0900000036,   3.85714293
    657,          50., 0.0599999987,   3.85714293
    658,          50., 0.0299999993,   3.85714293
    659,          50.,  0.119999997,   3.28571439
    660,          50., 0.0900000036,   3.28571439
    661,          50., 0.0599999987,   3.28571439
    662,          50., 0.0299999993,   3.28571439
    663,          50.,  0.119999997,   2.71428561
    664,          50., 0.0900000036,   2.71428561
    665,          50., 0.0599999987,   2.71428561
    666,          50., 0.0299999993,   2.71428561
    667,          50.,  0.119999997,   2.14285707
    668,          50., 0.0900000036,   2.14285707
    669,          50., 0.0599999987,   2.14285707
    670,          50., 0.0299999993,   2.14285707
    671,          50.,  0.119999997,   1.57142854
    672,          50., 0.0900000036,   1.57142854
    673,          50., 0.0599999987,   1.57142854
    674,          50., 0.0299999993,   1.57142854
    675,           0.,  0.119999997,   4.42857122
    676,           0., 0.0900000036,   4.42857122
    677,           0., 0.0599999987,   4.42857122
    678,           0., 0.0299999993,   4.42857122
    679,           0.,  0.119999997,   3.85714293
    680,           0., 0.0900000036,   3.85714293
    681,           0., 0.0599999987,   3.85714293
    682,           0., 0.0299999993,   3.85714293
    683,           0.,  0.119999997,   3.28571439
    684,           0., 0.0900000036,   3.28571439
    685,           0., 0.0599999987,   3.28571439
    686,           0., 0.0299999993,   3.28571439
    687,           0.,  0.119999997,   2.71428561
    688,           0., 0.0900000036,   2.71428561
    689,           0., 0.0599999987,   2.71428561
    690,           0., 0.0299999993,   2.71428561
    691,           0.,  0.119999997,   2.14285707
    692,           0., 0.0900000036,   2.14285707
    693,           0., 0.0599999987,   2.14285707
    694,           0., 0.0299999993,   2.14285707
    695,           0.,  0.119999997,   1.57142854
    696,           0., 0.0900000036,   1.57142854
    697,           0., 0.0599999987,   1.57142854
    698,           0., 0.0299999993,   1.57142854
    699,         47.5,  0.150000006,   4.42857122
    700,         47.5,  0.150000006,   3.85714293
    701,         47.5,  0.150000006,   3.28571439
    702,         47.5,  0.150000006,   2.71428561
    703,         47.5,  0.150000006,   2.14285707
    704,         47.5,  0.150000006,   1.57142854
    705,          45.,  0.150000006,   4.42857122
    706,          45.,  0.150000006,   3.85714293
    707,          45.,  0.150000006,   3.28571439
    708,          45.,  0.150000006,   2.71428561
    709,          45.,  0.150000006,   2.14285707
    710,          45.,  0.150000006,   1.57142854
    711,         42.5,  0.150000006,   4.42857122
    712,         42.5,  0.150000006,   3.85714293
    713,         42.5,  0.150000006,   3.28571439
    714,         42.5,  0.150000006,   2.71428561
    715,         42.5,  0.150000006,   2.14285707
    716,         42.5,  0.150000006,   1.57142854
    717,          40.,  0.150000006,   4.42857122
    718,          40.,  0.150000006,   3.85714293
    719,          40.,  0.150000006,   3.28571439
    720,          40.,  0.150000006,   2.71428561
    721,          40.,  0.150000006,   2.14285707
    722,          40.,  0.150000006,   1.57142854
    723,         37.5,  0.150000006,   4.42857122
    724,         37.5,  0.150000006,   3.85714293
    725,         37.5,  0.150000006,   3.28571439
    726,         37.5,  0.150000006,   2.71428561
    727,         37.5,  0.150000006,   2.14285707
    728,         37.5,  0.150000006,   1.57142854
    729,          35.,  0.150000006,   4.42857122
    730,          35.,  0.150000006,   3.85714293
    731,          35.,  0.150000006,   3.28571439
    732,          35.,  0.150000006,   2.71428561
    733,          35.,  0.150000006,   2.14285707
    734,          35.,  0.150000006,   1.57142854
    735,         32.5,  0.150000006,   4.42857122
    736,         32.5,  0.150000006,   3.85714293
    737,         32.5,  0.150000006,   3.28571439
    738,         32.5,  0.150000006,   2.71428561
    739,         32.5,  0.150000006,   2.14285707
    740,         32.5,  0.150000006,   1.57142854
    741,          30.,  0.150000006,   4.42857122
    742,          30.,  0.150000006,   3.85714293
    743,          30.,  0.150000006,   3.28571439
    744,          30.,  0.150000006,   2.71428561
    745,          30.,  0.150000006,   2.14285707
    746,          30.,  0.150000006,   1.57142854
    747,         27.5,  0.150000006,   4.42857122
    748,         27.5,  0.150000006,   3.85714293
    749,         27.5,  0.150000006,   3.28571439
    750,         27.5,  0.150000006,   2.71428561
    751,         27.5,  0.150000006,   2.14285707
    752,         27.5,  0.150000006,   1.57142854
    753,          25.,  0.150000006,   4.42857122
    754,          25.,  0.150000006,   3.85714293
    755,          25.,  0.150000006,   3.28571439
    756,          25.,  0.150000006,   2.71428561
    757,          25.,  0.150000006,   2.14285707
    758,          25.,  0.150000006,   1.57142854
    759,         22.5,  0.150000006,   4.42857122
    760,         22.5,  0.150000006,   3.85714293
    761,         22.5,  0.150000006,   3.28571439
    762,         22.5,  0.150000006,   2.71428561
    763,         22.5,  0.150000006,   2.14285707
    764,         22.5,  0.150000006,   1.57142854
    765,          20.,  0.150000006,   4.42857122
    766,          20.,  0.150000006,   3.85714293
    767,          20.,  0.150000006,   3.28571439
    768,          20.,  0.150000006,   2.71428561
    769,          20.,  0.150000006,   2.14285707
    770,          20.,  0.150000006,   1.57142854
    771,         17.5,  0.150000006,   4.42857122
    772,         17.5,  0.150000006,   3.85714293
    773,         17.5,  0.150000006,   3.28571439
    774,         17.5,  0.150000006,   2.71428561
    775,         17.5,  0.150000006,   2.14285707
    776,         17.5,  0.150000006,   1.57142854
    777,          15.,  0.150000006,   4.42857122
    778,          15.,  0.150000006,   3.85714293
    779,          15.,  0.150000006,   3.28571439
    780,          15.,  0.150000006,   2.71428561
    781,          15.,  0.150000006,   2.14285707
    782,          15.,  0.150000006,   1.57142854
    783,         12.5,  0.150000006,   4.42857122
    784,         12.5,  0.150000006,   3.85714293
    785,         12.5,  0.150000006,   3.28571439
    786,         12.5,  0.150000006,   2.71428561
    787,         12.5,  0.150000006,   2.14285707
    788,         12.5,  0.150000006,   1.57142854
    789,          10.,  0.150000006,   4.42857122
    790,          10.,  0.150000006,   3.85714293
    791,          10.,  0.150000006,   3.28571439
    792,          10.,  0.150000006,   2.71428561
    793,          10.,  0.150000006,   2.14285707
    794,          10.,  0.150000006,   1.57142854
    795,          7.5,  0.150000006,   4.42857122
    796,          7.5,  0.150000006,   3.85714293
    797,          7.5,  0.150000006,   3.28571439
    798,          7.5,  0.150000006,   2.71428561
    799,          7.5,  0.150000006,   2.14285707
    800,          7.5,  0.150000006,   1.57142854
    801,           5.,  0.150000006,   4.42857122
    802,           5.,  0.150000006,   3.85714293
    803,           5.,  0.150000006,   3.28571439
    804,           5.,  0.150000006,   2.71428561
    805,           5.,  0.150000006,   2.14285707
    806,           5.,  0.150000006,   1.57142854
    807,          2.5,  0.150000006,   4.42857122
    808,          2.5,  0.150000006,   3.85714293
    809,          2.5,  0.150000006,   3.28571439
    810,          2.5,  0.150000006,   2.71428561
    811,          2.5,  0.150000006,   2.14285707
    812,          2.5,  0.150000006,   1.57142854
    813,         47.5,           0.,   4.42857122
    814,         47.5,           0.,   3.85714293
    815,         47.5,           0.,   3.28571439
    816,         47.5,           0.,   2.71428561
    817,         47.5,           0.,   2.14285707
    818,         47.5,           0.,   1.57142854
    819,          45.,           0.,   4.42857122
    820,          45.,           0.,   3.85714293
    821,          45.,           0.,   3.28571439
    822,          45.,           0.,   2.71428561
    823,          45.,           0.,   2.14285707
    824,          45.,           0.,   1.57142854
    825,         42.5,           0.,   4.42857122
    826,         42.5,           0.,   3.85714293
    827,         42.5,           0.,   3.28571439
    828,         42.5,           0.,   2.71428561
    829,         42.5,           0.,   2.14285707
    830,         42.5,           0.,   1.57142854
    831,          40.,           0.,   4.42857122
    832,          40.,           0.,   3.85714293
    833,          40.,           0.,   3.28571439
    834,          40.,           0.,   2.71428561
    835,          40.,           0.,   2.14285707
    836,          40.,           0.,   1.57142854
    837,         37.5,           0.,   4.42857122
    838,         37.5,           0.,   3.85714293
    839,         37.5,           0.,   3.28571439
    840,         37.5,           0.,   2.71428561
    841,         37.5,           0.,   2.14285707
    842,         37.5,           0.,   1.57142854
    843,          35.,           0.,   4.42857122
    844,          35.,           0.,   3.85714293
    845,          35.,           0.,   3.28571439
    846,          35.,           0.,   2.71428561
    847,          35.,           0.,   2.14285707
    848,          35.,           0.,   1.57142854
    849,         32.5,           0.,   4.42857122
    850,         32.5,           0.,   3.85714293
    851,         32.5,           0.,   3.28571439
    852,         32.5,           0.,   2.71428561
    853,         32.5,           0.,   2.14285707
    854,         32.5,           0.,   1.57142854
    855,          30.,           0.,   4.42857122
    856,          30.,           0.,   3.85714293
    857,          30.,           0.,   3.28571439
    858,          30.,           0.,   2.71428561
    859,          30.,           0.,   2.14285707
    860,          30.,           0.,   1.57142854
    861,         27.5,           0.,   4.42857122
    862,         27.5,           0.,   3.85714293
    863,         27.5,           0.,   3.28571439
    864,         27.5,           0.,   2.71428561
    865,         27.5,           0.,   2.14285707
    866,         27.5,           0.,   1.57142854
    867,          25.,           0.,   4.42857122
    868,          25.,           0.,   3.85714293
    869,          25.,           0.,   3.28571439
    870,          25.,           0.,   2.71428561
    871,          25.,           0.,   2.14285707
    872,          25.,           0.,   1.57142854
    873,         22.5,           0.,   4.42857122
    874,         22.5,           0.,   3.85714293
    875,         22.5,           0.,   3.28571439
    876,         22.5,           0.,   2.71428561
    877,         22.5,           0.,   2.14285707
    878,         22.5,           0.,   1.57142854
    879,          20.,           0.,   4.42857122
    880,          20.,           0.,   3.85714293
    881,          20.,           0.,   3.28571439
    882,          20.,           0.,   2.71428561
    883,          20.,           0.,   2.14285707
    884,          20.,           0.,   1.57142854
    885,         17.5,           0.,   4.42857122
    886,         17.5,           0.,   3.85714293
    887,         17.5,           0.,   3.28571439
    888,         17.5,           0.,   2.71428561
    889,         17.5,           0.,   2.14285707
    890,         17.5,           0.,   1.57142854
    891,          15.,           0.,   4.42857122
    892,          15.,           0.,   3.85714293
    893,          15.,           0.,   3.28571439
    894,          15.,           0.,   2.71428561
    895,          15.,           0.,   2.14285707
    896,          15.,           0.,   1.57142854
    897,         12.5,           0.,   4.42857122
    898,         12.5,           0.,   3.85714293
    899,         12.5,           0.,   3.28571439
    900,         12.5,           0.,   2.71428561
    901,         12.5,           0.,   2.14285707
    902,         12.5,           0.,   1.57142854
    903,          10.,           0.,   4.42857122
    904,          10.,           0.,   3.85714293
    905,          10.,           0.,   3.28571439
    906,          10.,           0.,   2.71428561
    907,          10.,           0.,   2.14285707
    908,          10.,           0.,   1.57142854
    909,          7.5,           0.,   4.42857122
    910,          7.5,           0.,   3.85714293
    911,          7.5,           0.,   3.28571439
    912,          7.5,           0.,   2.71428561
    913,          7.5,           0.,   2.14285707
    914,          7.5,           0.,   1.57142854
    915,           5.,           0.,   4.42857122
    916,           5.,           0.,   3.85714293
    917,           5.,           0.,   3.28571439
    918,           5.,           0.,   2.71428561
    919,           5.,           0.,   2.14285707
    920,           5.,           0.,   1.57142854
    921,          2.5,           0.,   4.42857122
    922,          2.5,           0.,   3.85714293
    923,          2.5,           0.,   3.28571439
    924,          2.5,           0.,   2.71428561
    925,          2.5,           0.,   2.14285707
    926,          2.5,           0.,   1.57142854
    927,         47.5,  0.119999997,           5.
    928,         47.5, 0.0900000036,           5.
    929,         47.5, 0.0599999987,           5.
    930,         47.5, 0.0299999993,           5.
    931,          45.,  0.119999997,           5.
    932,          45., 0.0900000036,           5.
    933,          45., 0.0599999987,           5.
    934,          45., 0.0299999993,           5.
    935,         42.5,  0.119999997,           5.
    936,         42.5, 0.0900000036,           5.
    937,         42.5, 0.0599999987,           5.
    938,         42.5, 0.0299999993,           5.
    939,          40.,  0.119999997,           5.
    940,          40., 0.0900000036,           5.
    941,          40., 0.0599999987,           5.
    942,          40., 0.0299999993,           5.
    943,         37.5,  0.119999997,           5.
    944,         37.5, 0.0900000036,           5.
    945,         37.5, 0.0599999987,           5.
    946,         37.5, 0.0299999993,           5.
    947,          35.,  0.119999997,           5.
    948,          35., 0.0900000036,           5.
    949,          35., 0.0599999987,           5.
    950,          35., 0.0299999993,           5.
    951,         32.5,  0.119999997,           5.
    952,         32.5, 0.0900000036,           5.
    953,         32.5, 0.0599999987,           5.
    954,         32.5, 0.0299999993,           5.
    955,          30.,  0.119999997,           5.
    956,          30., 0.0900000036,           5.
    957,          30., 0.0599999987,           5.
    958,          30., 0.0299999993,           5.
    959,         27.5,  0.119999997,           5.
    960,         27.5, 0.0900000036,           5.
    961,         27.5, 0.0599999987,           5.
    962,         27.5, 0.0299999993,           5.
    963,          25.,  0.119999997,           5.
    964,          25., 0.0900000036,           5.
    965,          25., 0.0599999987,           5.
    966,          25., 0.0299999993,           5.
    967,         22.5,  0.119999997,           5.
    968,         22.5, 0.0900000036,           5.
    969,         22.5, 0.0599999987,           5.
    970,         22.5, 0.0299999993,           5.
    971,          20.,  0.119999997,           5.
    972,          20., 0.0900000036,           5.
    973,          20., 0.0599999987,           5.
    974,          20., 0.0299999993,           5.
    975,         17.5,  0.119999997,           5.
    976,         17.5, 0.0900000036,           5.
    977,         17.5, 0.0599999987,           5.
    978,         17.5, 0.0299999993,           5.
    979,          15.,  0.119999997,           5.
    980,          15., 0.0900000036,           5.
    981,          15., 0.0599999987,           5.
    982,          15., 0.0299999993,           5.
    983,         12.5,  0.119999997,           5.
    984,         12.5, 0.0900000036,           5.
    985,         12.5, 0.0599999987,           5.
    986,         12.5, 0.0299999993,           5.
    987,          10.,  0.119999997,           5.
    988,          10., 0.0900000036,           5.
    989,          10., 0.0599999987,           5.
    990,          10., 0.0299999993,           5.
    991,          7.5,  0.119999997,           5.
    992,          7.5, 0.0900000036,           5.
    993,          7.5, 0.0599999987,           5.
    994,          7.5, 0.0299999993,           5.
    995,           5.,  0.119999997,           5.
    996,           5., 0.0900000036,           5.
    997,           5., 0.0599999987,           5.
    998,           5., 0.0299999993,           5.
    999,          2.5,  0.119999997,           5.
   1000,          2.5, 0.0900000036,           5.
   1001,          2.5, 0.0599999987,           5.
   1002,          2.5, 0.0299999993,           5.
   1003,         47.5,  0.119999997,           1.
   1004,         47.5, 0.0900000036,           1.
   1005,         47.5, 0.0599999987,           1.
   1006,         47.5, 0.0299999993,           1.
   1007,          45.,  0.119999997,           1.
   1008,          45., 0.0900000036,           1.
   1009,          45., 0.0599999987,           1.
   1010,          45., 0.0299999993,           1.
   1011,         42.5,  0.119999997,           1.
   1012,         42.5, 0.0900000036,           1.
   1013,         42.5, 0.0599999987,           1.
   1014,         42.5, 0.0299999993,           1.
   1015,          40.,  0.119999997,           1.
   1016,          40., 0.0900000036,           1.
   1017,          40., 0.0599999987,           1.
   1018,          40., 0.0299999993,           1.
   1019,         37.5,  0.119999997,           1.
   1020,         37.5, 0.0900000036,           1.
   1021,         37.5, 0.0599999987,           1.
   1022,         37.5, 0.0299999993,           1.
   1023,          35.,  0.119999997,           1.
   1024,          35., 0.0900000036,           1.
   1025,          35., 0.0599999987,           1.
   1026,          35., 0.0299999993,           1.
   1027,         32.5,  0.119999997,           1.
   1028,         32.5, 0.0900000036,           1.
   1029,         32.5, 0.0599999987,           1.
   1030,         32.5, 0.0299999993,           1.
   1031,          30.,  0.119999997,           1.
   1032,          30., 0.0900000036,           1.
   1033,          30., 0.0599999987,           1.
   1034,          30., 0.0299999993,           1.
   1035,         27.5,  0.119999997,           1.
   1036,         27.5, 0.0900000036,           1.
   1037,         27.5, 0.0599999987,           1.
   1038,         27.5, 0.0299999993,           1.
   1039,          25.,  0.119999997,           1.
   1040,          25., 0.0900000036,           1.
   1041,          25., 0.0599999987,           1.
   1042,          25., 0.0299999993,           1.
   1043,         22.5,  0.119999997,           1.
   1044,         22.5, 0.0900000036,           1.
   1045,         22.5, 0.0599999987,           1.
   1046,         22.5, 0.0299999993,           1.
   1047,          20.,  0.119999997,           1.
   1048,          20., 0.0900000036,           1.
   1049,          20., 0.0599999987,           1.
   1050,          20., 0.0299999993,           1.
   1051,         17.5,  0.119999997,           1.
   1052,         17.5, 0.0900000036,           1.
   1053,         17.5, 0.0599999987,           1.
   1054,         17.5, 0.0299999993,           1.
   1055,          15.,  0.119999997,           1.
   1056,          15., 0.0900000036,           1.
   1057,          15., 0.0599999987,           1.
   1058,          15., 0.0299999993,           1.
   1059,         12.5,  0.119999997,           1.
   1060,         12.5, 0.0900000036,           1.
   1061,         12.5, 0.0599999987,           1.
   1062,         12.5, 0.0299999993,           1.
   1063,          10.,  0.119999997,           1.
   1064,          10., 0.0900000036,           1.
   1065,          10., 0.0599999987,           1.
   1066,          10., 0.0299999993,           1.
   1067,          7.5,  0.119999997,           1.
   1068,          7.5, 0.0900000036,           1.
   1069,          7.5, 0.0599999987,           1.
   1070,          7.5, 0.0299999993,           1.
   1071,           5.,  0.119999997,           1.
   1072,           5., 0.0900000036,           1.
   1073,           5., 0.0599999987,           1.
   1074,           5., 0.0299999993,           1.
   1075,          2.5,  0.119999997,           1.
   1076,          2.5, 0.0900000036,           1.
   1077,          2.5, 0.0599999987,           1.
   1078,          2.5, 0.0299999993,           1.
   1079,          50.,  0.119999997,          11.
   1080,          50., 0.0900000036,          11.
   1081,          50., 0.0599999987,          11.
   1082,          50., 0.0299999993,          11.
   1083,          50.,  0.119999997,          9.5
   1084,          50., 0.0900000036,          9.5
   1085,          50., 0.0599999987,          9.5
   1086,          50., 0.0299999993,          9.5
   1087,          50.,  0.119999997,           8.
   1088,          50., 0.0900000036,           8.
   1089,          50., 0.0599999987,           8.
   1090,          50., 0.0299999993,           8.
   1091,          50.,  0.119999997,          6.5
   1092,          50., 0.0900000036,          6.5
   1093,          50., 0.0599999987,          6.5
   1094,          50., 0.0299999993,          6.5
   1095,           0.,  0.119999997,          11.
   1096,           0., 0.0900000036,          11.
   1097,           0., 0.0599999987,          11.
   1098,           0., 0.0299999993,          11.
   1099,           0.,  0.119999997,          9.5
   1100,           0., 0.0900000036,          9.5
   1101,           0., 0.0599999987,          9.5
   1102,           0., 0.0299999993,          9.5
   1103,           0.,  0.119999997,           8.
   1104,           0., 0.0900000036,           8.
   1105,           0., 0.0599999987,           8.
   1106,           0., 0.0299999993,           8.
   1107,           0.,  0.119999997,          6.5
   1108,           0., 0.0900000036,          6.5
   1109,           0., 0.0599999987,          6.5
   1110,           0., 0.0299999993,          6.5
   1111,         47.5,  0.150000006,          11.
   1112,         47.5,  0.150000006,          9.5
   1113,         47.5,  0.150000006,           8.
   1114,         47.5,  0.150000006,          6.5
   1115,          45.,  0.150000006,          11.
   1116,          45.,  0.150000006,          9.5
   1117,          45.,  0.150000006,           8.
   1118,          45.,  0.150000006,          6.5
   1119,         42.5,  0.150000006,          11.
   1120,         42.5,  0.150000006,          9.5
   1121,         42.5,  0.150000006,           8.
   1122,         42.5,  0.150000006,          6.5
   1123,          40.,  0.150000006,          11.
   1124,          40.,  0.150000006,          9.5
   1125,          40.,  0.150000006,           8.
   1126,          40.,  0.150000006,          6.5
   1127,         37.5,  0.150000006,          11.
   1128,         37.5,  0.150000006,          9.5
   1129,         37.5,  0.150000006,           8.
   1130,         37.5,  0.150000006,          6.5
   1131,          35.,  0.150000006,          11.
   1132,          35.,  0.150000006,          9.5
   1133,          35.,  0.150000006,           8.
   1134,          35.,  0.150000006,          6.5
   1135,         32.5,  0.150000006,          11.
   1136,         32.5,  0.150000006,          9.5
   1137,         32.5,  0.150000006,           8.
   1138,         32.5,  0.150000006,          6.5
   1139,          30.,  0.150000006,          11.
   1140,          30.,  0.150000006,          9.5
   1141,          30.,  0.150000006,           8.
   1142,          30.,  0.150000006,          6.5
   1143,         27.5,  0.150000006,          11.
   1144,         27.5,  0.150000006,          9.5
   1145,         27.5,  0.150000006,           8.
   1146,         27.5,  0.150000006,          6.5
   1147,          25.,  0.150000006,          11.
   1148,          25.,  0.150000006,          9.5
   1149,          25.,  0.150000006,           8.
   1150,          25.,  0.150000006,          6.5
   1151,         22.5,  0.150000006,          11.
   1152,         22.5,  0.150000006,          9.5
   1153,         22.5,  0.150000006,           8.
   1154,         22.5,  0.150000006,          6.5
   1155,          20.,  0.150000006,          11.
   1156,          20.,  0.150000006,          9.5
   1157,          20.,  0.150000006,           8.
   1158,          20.,  0.150000006,          6.5
   1159,         17.5,  0.150000006,          11.
   1160,         17.5,  0.150000006,          9.5
   1161,         17.5,  0.150000006,           8.
   1162,         17.5,  0.150000006,          6.5
   1163,          15.,  0.150000006,          11.
   1164,          15.,  0.150000006,          9.5
   1165,          15.,  0.150000006,           8.
   1166,          15.,  0.150000006,          6.5
   1167,         12.5,  0.150000006,          11.
   1168,         12.5,  0.150000006,          9.5
   1169,         12.5,  0.150000006,           8.
   1170,         12.5,  0.150000006,          6.5
   1171,          10.,  0.150000006,          11.
   1172,          10.,  0.150000006,          9.5
   1173,          10.,  0.150000006,           8.
   1174,          10.,  0.150000006,          6.5
   1175,          7.5,  0.150000006,          11.
   1176,          7.5,  0.150000006,          9.5
   1177,          7.5,  0.150000006,           8.
   1178,          7.5,  0.150000006,          6.5
   1179,           5.,  0.150000006,          11.
   1180,           5.,  0.150000006,          9.5
   1181,           5.,  0.150000006,           8.
   1182,           5.,  0.150000006,          6.5
   1183,          2.5,  0.150000006,          11.
   1184,          2.5,  0.150000006,          9.5
   1185,          2.5,  0.150000006,           8.
   1186,          2.5,  0.150000006,          6.5
   1187,         47.5,           0.,          11.
   1188,         47.5,           0.,          9.5
   1189,         47.5,           0.,           8.
   1190,         47.5,           0.,          6.5
   1191,          45.,           0.,          11.
   1192,          45.,           0.,          9.5
   1193,          45.,           0.,           8.
   1194,          45.,           0.,          6.5
   1195,         42.5,           0.,          11.
   1196,         42.5,           0.,          9.5
   1197,         42.5,           0.,           8.
   1198,         42.5,           0.,          6.5
   1199,          40.,           0.,          11.
   1200,          40.,           0.,          9.5
   1201,          40.,           0.,           8.
   1202,          40.,           0.,          6.5
   1203,         37.5,           0.,          11.
   1204,         37.5,           0.,          9.5
   1205,         37.5,           0.,           8.
   1206,         37.5,           0.,          6.5
   1207,          35.,           0.,          11.
   1208,          35.,           0.,          9.5
   1209,          35.,           0.,           8.
   1210,          35.,           0.,          6.5
   1211,         32.5,           0.,          11.
   1212,         32.5,           0.,          9.5
   1213,         32.5,           0.,           8.
   1214,         32.5,           0.,          6.5
   1215,          30.,           0.,          11.
   1216,          30.,           0.,          9.5
   1217,          30.,           0.,           8.
   1218,          30.,           0.,          6.5
   1219,         27.5,           0.,          11.
   1220,         27.5,           0.,          9.5
   1221,         27.5,           0.,           8.
   1222,         27.5,           0.,          6.5
   1223,          25.,           0.,          11.
   1224,          25.,           0.,          9.5
   1225,          25.,           0.,           8.
   1226,          25.,           0.,          6.5
   1227,         22.5,           0.,          11.
   1228,         22.5,           0.,          9.5
   1229,         22.5,           0.,           8.
   1230,         22.5,           0.,          6.5
   1231,          20.,           0.,          11.
   1232,          20.,           0.,          9.5
   1233,          20.,           0.,           8.
   1234,          20.,           0.,          6.5
   1235,         17.5,           0.,          11.
   1236,         17.5,           0.,          9.5
   1237,         17.5,           0.,           8.
   1238,         17.5,           0.,          6.5
   1239,          15.,           0.,          11.
   1240,          15.,           0.,          9.5
   1241,          15.,           0.,           8.
   1242,          15.,           0.,          6.5
   1243,         12.5,           0.,          11.
   1244,         12.5,           0.,          9.5
   1245,         12.5,           0.,           8.
   1246,         12.5,           0.,          6.5
   1247,          10.,           0.,          11.
   1248,          10.,           0.,          9.5
   1249,          10.,           0.,           8.
   1250,          10.,           0.,          6.5
   1251,          7.5,           0.,          11.
   1252,          7.5,           0.,          9.5
   1253,          7.5,           0.,           8.
   1254,          7.5,           0.,          6.5
   1255,           5.,           0.,          11.
   1256,           5.,           0.,          9.5
   1257,           5.,           0.,           8.
   1258,           5.,           0.,          6.5
   1259,          2.5,           0.,          11.
   1260,          2.5,           0.,          9.5
   1261,          2.5,           0.,           8.
   1262,          2.5,           0.,          6.5
   1263,           0., 0.0299999993,  0.666666687
   1264,           0., 0.0599999987,  0.666666687
   1265,           0., 0.0900000036,  0.666666687
   1266,           0.,  0.119999997,  0.666666687
   1267,           0., 0.0299999993,  0.333333343
   1268,           0., 0.0599999987,  0.333333343
   1269,           0., 0.0900000036,  0.333333343
   1270,           0.,  0.119999997,  0.333333343
   1271,          50., 0.0299999993,  0.666666687
   1272,          50., 0.0599999987,  0.666666687
   1273,          50., 0.0900000036,  0.666666687
   1274,          50.,  0.119999997,  0.666666687
   1275,          50., 0.0299999993,  0.333333343
   1276,          50., 0.0599999987,  0.333333343
   1277,          50., 0.0900000036,  0.333333343
   1278,          50.,  0.119999997,  0.333333343
   1279,          2.5,           0.,  0.666666687
   1280,          2.5,           0.,  0.333333343
   1281,           5.,           0.,  0.666666687
   1282,           5.,           0.,  0.333333343
   1283,          7.5,           0.,  0.666666687
   1284,          7.5,           0.,  0.333333343
   1285,          10.,           0.,  0.666666687
   1286,          10.,           0.,  0.333333343
   1287,         12.5,           0.,  0.666666687
   1288,         12.5,           0.,  0.333333343
   1289,          15.,           0.,  0.666666687
   1290,          15.,           0.,  0.333333343
   1291,         17.5,           0.,  0.666666687
   1292,         17.5,           0.,  0.333333343
   1293,          20.,           0.,  0.666666687
   1294,          20.,           0.,  0.333333343
   1295,         22.5,           0.,  0.666666687
   1296,         22.5,           0.,  0.333333343
   1297,          25.,           0.,  0.666666687
   1298,          25.,           0.,  0.333333343
   1299,         27.5,           0.,  0.666666687
   1300,         27.5,           0.,  0.333333343
   1301,          30.,           0.,  0.666666687
   1302,          30.,           0.,  0.333333343
   1303,         32.5,           0.,  0.666666687
   1304,         32.5,           0.,  0.333333343
   1305,          35.,           0.,  0.666666687
   1306,          35.,           0.,  0.333333343
   1307,         37.5,           0.,  0.666666687
   1308,         37.5,           0.,  0.333333343
   1309,          40.,           0.,  0.666666687
   1310,          40.,           0.,  0.333333343
   1311,         42.5,           0.,  0.666666687
   1312,         42.5,           0.,  0.333333343
   1313,          45.,           0.,  0.666666687
   1314,          45.,           0.,  0.333333343
   1315,         47.5,           0.,  0.666666687
   1316,         47.5,           0.,  0.333333343
   1317,          2.5,  0.150000006,  0.666666687
   1318,          2.5,  0.150000006,  0.333333343
   1319,           5.,  0.150000006,  0.666666687
   1320,           5.,  0.150000006,  0.333333343
   1321,          7.5,  0.150000006,  0.666666687
   1322,          7.5,  0.150000006,  0.333333343
   1323,          10.,  0.150000006,  0.666666687
   1324,          10.,  0.150000006,  0.333333343
   1325,         12.5,  0.150000006,  0.666666687
   1326,         12.5,  0.150000006,  0.333333343
   1327,          15.,  0.150000006,  0.666666687
   1328,          15.,  0.150000006,  0.333333343
   1329,         17.5,  0.150000006,  0.666666687
   1330,         17.5,  0.150000006,  0.333333343
   1331,          20.,  0.150000006,  0.666666687
   1332,          20.,  0.150000006,  0.333333343
   1333,         22.5,  0.150000006,  0.666666687
   1334,         22.5,  0.150000006,  0.333333343
   1335,          25.,  0.150000006,  0.666666687
   1336,          25.,  0.150000006,  0.333333343
   1337,         27.5,  0.150000006,  0.666666687
   1338,         27.5,  0.150000006,  0.333333343
   1339,          30.,  0.150000006,  0.666666687
   1340,          30.,  0.150000006,  0.333333343
   1341,         32.5,  0.150000006,  0.666666687
   1342,         32.5,  0.150000006,  0.333333343
   1343,          35.,  0.150000006,  0.666666687
   1344,          35.,  0.150000006,  0.333333343
   1345,         37.5,  0.150000006,  0.666666687
   1346,         37.5,  0.150000006,  0.333333343
   1347,          40.,  0.150000006,  0.666666687
   1348,          40.,  0.150000006,  0.333333343
   1349,         42.5,  0.150000006,  0.666666687
   1350,         42.5,  0.150000006,  0.333333343
   1351,          45.,  0.150000006,  0.666666687
   1352,          45.,  0.150000006,  0.333333343
   1353,         47.5,  0.150000006,  0.666666687
   1354,         47.5,  0.150000006,  0.333333343
   1355,          2.5, 0.0299999993,           0.
   1356,          2.5, 0.0599999987,           0.
   1357,          2.5, 0.0900000036,           0.
   1358,          2.5,  0.119999997,           0.
   1359,           5., 0.0299999993,           0.
   1360,           5., 0.0599999987,           0.
   1361,           5., 0.0900000036,           0.
   1362,           5.,  0.119999997,           0.
   1363,          7.5, 0.0299999993,           0.
   1364,          7.5, 0.0599999987,           0.
   1365,          7.5, 0.0900000036,           0.
   1366,          7.5,  0.119999997,           0.
   1367,          10., 0.0299999993,           0.
   1368,          10., 0.0599999987,           0.
   1369,          10., 0.0900000036,           0.
   1370,          10.,  0.119999997,           0.
   1371,         12.5, 0.0299999993,           0.
   1372,         12.5, 0.0599999987,           0.
   1373,         12.5, 0.0900000036,           0.
   1374,         12.5,  0.119999997,           0.
   1375,          15., 0.0299999993,           0.
   1376,          15., 0.0599999987,           0.
   1377,          15., 0.0900000036,           0.
   1378,          15.,  0.119999997,           0.
   1379,         17.5, 0.0299999993,           0.
   1380,         17.5, 0.0599999987,           0.
   1381,         17.5, 0.0900000036,           0.
   1382,         17.5,  0.119999997,           0.
   1383,          20., 0.0299999993,           0.
   1384,          20., 0.0599999987,           0.
   1385,          20., 0.0900000036,           0.
   1386,          20.,  0.119999997,           0.
   1387,         22.5, 0.0299999993,           0.
   1388,         22.5, 0.0599999987,           0.
   1389,         22.5, 0.0900000036,           0.
   1390,         22.5,  0.119999997,           0.
   1391,          25., 0.0299999993,           0.
   1392,          25., 0.0599999987,           0.
   1393,          25., 0.0900000036,           0.
   1394,          25.,  0.119999997,           0.
   1395,         27.5, 0.0299999993,           0.
   1396,         27.5, 0.0599999987,           0.
   1397,         27.5, 0.0900000036,           0.
   1398,         27.5,  0.119999997,           0.
   1399,          30., 0.0299999993,           0.
   1400,          30., 0.0599999987,           0.
   1401,          30., 0.0900000036,           0.
   1402,          30.,  0.119999997,           0.
   1403,         32.5, 0.0299999993,           0.
   1404,         32.5, 0.0599999987,           0.
   1405,         32.5, 0.0900000036,           0.
   1406,         32.5,  0.119999997,           0.
   1407,          35., 0.0299999993,           0.
   1408,          35., 0.0599999987,           0.
   1409,          35., 0.0900000036,           0.
   1410,          35.,  0.119999997,           0.
   1411,         37.5, 0.0299999993,           0.
   1412,         37.5, 0.0599999987,           0.
   1413,         37.5, 0.0900000036,           0.
   1414,         37.5,  0.119999997,           0.
   1415,          40., 0.0299999993,           0.
   1416,          40., 0.0599999987,           0.
   1417,          40., 0.0900000036,           0.
   1418,          40.,  0.119999997,           0.
   1419,         42.5, 0.0299999993,           0.
   1420,         42.5, 0.0599999987,           0.
   1421,         42.5, 0.0900000036,           0.
   1422,         42.5,  0.119999997,           0.
   1423,          45., 0.0299999993,           0.
   1424,          45., 0.0599999987,           0.
   1425,          45., 0.0900000036,           0.
   1426,          45.,  0.119999997,           0.
   1427,         47.5, 0.0299999993,           0.
   1428,         47.5, 0.0599999987,           0.
   1429,         47.5, 0.0900000036,           0.
   1430,         47.5,  0.119999997,           0.
   1431,         47.5, 0.0299999993,          15.
   1432,         47.5, 0.0599999987,          15.
   1433,         47.5, 0.0900000036,          15.
   1434,         47.5,  0.119999997,          15.
   1435,         47.5, 0.0299999993,         17.5
   1436,         47.5, 0.0599999987,         17.5
   1437,         47.5, 0.0900000036,         17.5
   1438,         47.5,  0.119999997,         17.5
   1439,         47.5, 0.0299999993,          20.
   1440,         47.5, 0.0599999987,          20.
   1441,         47.5, 0.0900000036,          20.
   1442,         47.5,  0.119999997,          20.
   1443,         47.5, 0.0299999993,         22.5
   1444,         47.5, 0.0599999987,         22.5
   1445,         47.5, 0.0900000036,         22.5
   1446,         47.5,  0.119999997,         22.5
   1447,          45., 0.0299999993,          15.
   1448,          45., 0.0599999987,          15.
   1449,          45., 0.0900000036,          15.
   1450,          45.,  0.119999997,          15.
   1451,          45., 0.0299999993,         17.5
   1452,          45., 0.0599999987,         17.5
   1453,          45., 0.0900000036,         17.5
   1454,          45.,  0.119999997,         17.5
   1455,          45., 0.0299999993,          20.
   1456,          45., 0.0599999987,          20.
   1457,          45., 0.0900000036,          20.
   1458,          45.,  0.119999997,          20.
   1459,          45., 0.0299999993,         22.5
   1460,          45., 0.0599999987,         22.5
   1461,          45., 0.0900000036,         22.5
   1462,          45.,  0.119999997,         22.5
   1463,         42.5, 0.0299999993,          15.
   1464,         42.5, 0.0599999987,          15.
   1465,         42.5, 0.0900000036,          15.
   1466,         42.5,  0.119999997,          15.
   1467,         42.5, 0.0299999993,         17.5
   1468,         42.5, 0.0599999987,         17.5
   1469,         42.5, 0.0900000036,         17.5
   1470,         42.5,  0.119999997,         17.5
   1471,         42.5, 0.0299999993,          20.
   1472,         42.5, 0.0599999987,          20.
   1473,         42.5, 0.0900000036,          20.
   1474,         42.5,  0.119999997,          20.
   1475,         42.5, 0.0299999993,         22.5
   1476,         42.5, 0.0599999987,         22.5
   1477,         42.5, 0.0900000036,         22.5
   1478,         42.5,  0.119999997,         22.5
   1479,          40., 0.0299999993,          15.
   1480,          40., 0.0599999987,          15.
   1481,          40., 0.0900000036,          15.
   1482,          40.,  0.119999997,          15.
   1483,          40., 0.0299999993,         17.5
   1484,          40., 0.0599999987,         17.5
   1485,          40., 0.0900000036,         17.5
   1486,          40.,  0.119999997,         17.5
   1487,          40., 0.0299999993,          20.
   1488,          40., 0.0599999987,          20.
   1489,          40., 0.0900000036,          20.
   1490,          40.,  0.119999997,          20.
   1491,          40., 0.0299999993,         22.5
   1492,          40., 0.0599999987,         22.5
   1493,          40., 0.0900000036,         22.5
   1494,          40.,  0.119999997,         22.5
   1495,         37.5, 0.0299999993,          15.
   1496,         37.5, 0.0599999987,          15.
   1497,         37.5, 0.0900000036,          15.
   1498,         37.5,  0.119999997,          15.
   1499,         37.5, 0.0299999993,         17.5
   1500,         37.5, 0.0599999987,         17.5
   1501,         37.5, 0.0900000036,         17.5
   1502,         37.5,  0.119999997,         17.5
   1503,         37.5, 0.0299999993,          20.
   1504,         37.5, 0.0599999987,          20.
   1505,         37.5, 0.0900000036,          20.
   1506,         37.5,  0.119999997,          20.
   1507,         37.5, 0.0299999993,         22.5
   1508,         37.5, 0.0599999987,         22.5
   1509,         37.5, 0.0900000036,         22.5
   1510,         37.5,  0.119999997,         22.5
   1511,          35., 0.0299999993,          15.
   1512,          35., 0.0599999987,          15.
   1513,          35., 0.0900000036,          15.
   1514,          35.,  0.119999997,          15.
   1515,          35., 0.0299999993,         17.5
   1516,          35., 0.0599999987,         17.5
   1517,          35., 0.0900000036,         17.5
   1518,          35.,  0.119999997,         17.5
   1519,          35., 0.0299999993,          20.
   1520,          35., 0.0599999987,          20.
   1521,          35., 0.0900000036,          20.
   1522,          35.,  0.119999997,          20.
   1523,          35., 0.0299999993,         22.5
   1524,          35., 0.0599999987,         22.5
   1525,          35., 0.0900000036,         22.5
   1526,          35.,  0.119999997,         22.5
   1527,         32.5, 0.0299999993,          15.
   1528,         32.5, 0.0599999987,          15.
   1529,         32.5, 0.0900000036,          15.
   1530,         32.5,  0.119999997,          15.
   1531,         32.5, 0.0299999993,         17.5
   1532,         32.5, 0.0599999987,         17.5
   1533,         32.5, 0.0900000036,         17.5
   1534,         32.5,  0.119999997,         17.5
   1535,         32.5, 0.0299999993,          20.
   1536,         32.5, 0.0599999987,          20.
   1537,         32.5, 0.0900000036,          20.
   1538,         32.5,  0.119999997,          20.
   1539,         32.5, 0.0299999993,         22.5
   1540,         32.5, 0.0599999987,         22.5
   1541,         32.5, 0.0900000036,         22.5
   1542,         32.5,  0.119999997,         22.5
   1543,          30., 0.0299999993,          15.
   1544,          30., 0.0599999987,          15.
   1545,          30., 0.0900000036,          15.
   1546,          30.,  0.119999997,          15.
   1547,          30., 0.0299999993,         17.5
   1548,          30., 0.0599999987,         17.5
   1549,          30., 0.0900000036,         17.5
   1550,          30.,  0.119999997,         17.5
   1551,          30., 0.0299999993,          20.
   1552,          30., 0.0599999987,          20.
   1553,          30., 0.0900000036,          20.
   1554,          30.,  0.119999997,          20.
   1555,          30., 0.0299999993,         22.5
   1556,          30., 0.0599999987,         22.5
   1557,          30., 0.0900000036,         22.5
   1558,          30.,  0.119999997,         22.5
   1559,         27.5, 0.0299999993,          15.
   1560,         27.5, 0.0599999987,          15.
   1561,         27.5, 0.0900000036,          15.
   1562,         27.5,  0.119999997,          15.
   1563,         27.5, 0.0299999993,         17.5
   1564,         27.5, 0.0599999987,         17.5
   1565,         27.5, 0.0900000036,         17.5
   1566,         27.5,  0.119999997,         17.5
   1567,         27.5, 0.0299999993,          20.
   1568,         27.5, 0.0599999987,          20.
   1569,         27.5, 0.0900000036,          20.
   1570,         27.5,  0.119999997,          20.
   1571,         27.5, 0.0299999993,         22.5
   1572,         27.5, 0.0599999987,         22.5
   1573,         27.5, 0.0900000036,         22.5
   1574,         27.5,  0.119999997,         22.5
   1575,          25., 0.0299999993,          15.
   1576,          25., 0.0599999987,          15.
   1577,          25., 0.0900000036,          15.
   1578,          25.,  0.119999997,          15.
   1579,          25., 0.0299999993,         17.5
   1580,          25., 0.0599999987,         17.5
   1581,          25., 0.0900000036,         17.5
   1582,          25.,  0.119999997,         17.5
   1583,          25., 0.0299999993,          20.
   1584,          25., 0.0599999987,          20.
   1585,          25., 0.0900000036,          20.
   1586,          25.,  0.119999997,          20.
   1587,          25., 0.0299999993,         22.5
   1588,          25., 0.0599999987,         22.5
   1589,          25., 0.0900000036,         22.5
   1590,          25.,  0.119999997,         22.5
   1591,         22.5, 0.0299999993,          15.
   1592,         22.5, 0.0599999987,          15.
   1593,         22.5, 0.0900000036,          15.
   1594,         22.5,  0.119999997,          15.
   1595,         22.5, 0.0299999993,         17.5
   1596,         22.5, 0.0599999987,         17.5
   1597,         22.5, 0.0900000036,         17.5
   1598,         22.5,  0.119999997,         17.5
   1599,         22.5, 0.0299999993,          20.
   1600,         22.5, 0.0599999987,          20.
   1601,         22.5, 0.0900000036,          20.
   1602,         22.5,  0.119999997,          20.
   1603,         22.5, 0.0299999993,         22.5
   1604,         22.5, 0.0599999987,         22.5
   1605,         22.5, 0.0900000036,         22.5
   1606,         22.5,  0.119999997,         22.5
   1607,          20., 0.0299999993,          15.
   1608,          20., 0.0599999987,          15.
   1609,          20., 0.0900000036,          15.
   1610,          20.,  0.119999997,          15.
   1611,          20., 0.0299999993,         17.5
   1612,          20., 0.0599999987,         17.5
   1613,          20., 0.0900000036,         17.5
   1614,          20.,  0.119999997,         17.5
   1615,          20., 0.0299999993,          20.
   1616,          20., 0.0599999987,          20.
   1617,          20., 0.0900000036,          20.
   1618,          20.,  0.119999997,          20.
   1619,          20., 0.0299999993,         22.5
   1620,          20., 0.0599999987,         22.5
   1621,          20., 0.0900000036,         22.5
   1622,          20.,  0.119999997,         22.5
   1623,         17.5, 0.0299999993,          15.
   1624,         17.5, 0.0599999987,          15.
   1625,         17.5, 0.0900000036,          15.
   1626,         17.5,  0.119999997,          15.
   1627,         17.5, 0.0299999993,         17.5
   1628,         17.5, 0.0599999987,         17.5
   1629,         17.5, 0.0900000036,         17.5
   1630,         17.5,  0.119999997,         17.5
   1631,         17.5, 0.0299999993,          20.
   1632,         17.5, 0.0599999987,          20.
   1633,         17.5, 0.0900000036,          20.
   1634,         17.5,  0.119999997,          20.
   1635,         17.5, 0.0299999993,         22.5
   1636,         17.5, 0.0599999987,         22.5
   1637,         17.5, 0.0900000036,         22.5
   1638,         17.5,  0.119999997,         22.5
   1639,          15., 0.0299999993,          15.
   1640,          15., 0.0599999987,          15.
   1641,          15., 0.0900000036,          15.
   1642,          15.,  0.119999997,          15.
   1643,          15., 0.0299999993,         17.5
   1644,          15., 0.0599999987,         17.5
   1645,          15., 0.0900000036,         17.5
   1646,          15.,  0.119999997,         17.5
   1647,          15., 0.0299999993,          20.
   1648,          15., 0.0599999987,          20.
   1649,          15., 0.0900000036,          20.
   1650,          15.,  0.119999997,          20.
   1651,          15., 0.0299999993,         22.5
   1652,          15., 0.0599999987,         22.5
   1653,          15., 0.0900000036,         22.5
   1654,          15.,  0.119999997,         22.5
   1655,         12.5, 0.0299999993,          15.
   1656,         12.5, 0.0599999987,          15.
   1657,         12.5, 0.0900000036,          15.
   1658,         12.5,  0.119999997,          15.
   1659,         12.5, 0.0299999993,         17.5
   1660,         12.5, 0.0599999987,         17.5
   1661,         12.5, 0.0900000036,         17.5
   1662,         12.5,  0.119999997,         17.5
   1663,         12.5, 0.0299999993,          20.
   1664,         12.5, 0.0599999987,          20.
   1665,         12.5, 0.0900000036,          20.
   1666,         12.5,  0.119999997,          20.
   1667,         12.5, 0.0299999993,         22.5
   1668,         12.5, 0.0599999987,         22.5
   1669,         12.5, 0.0900000036,         22.5
   1670,         12.5,  0.119999997,         22.5
   1671,          10., 0.0299999993,          15.
   1672,          10., 0.0599999987,          15.
   1673,          10., 0.0900000036,          15.
   1674,          10.,  0.119999997,          15.
   1675,          10., 0.0299999993,         17.5
   1676,          10., 0.0599999987,         17.5
   1677,          10., 0.0900000036,         17.5
   1678,          10.,  0.119999997,         17.5
   1679,          10., 0.0299999993,          20.
   1680,          10., 0.0599999987,          20.
   1681,          10., 0.0900000036,          20.
   1682,          10.,  0.119999997,          20.
   1683,          10., 0.0299999993,         22.5
   1684,          10., 0.0599999987,         22.5
   1685,          10., 0.0900000036,         22.5
   1686,          10.,  0.119999997,         22.5
   1687,          7.5, 0.0299999993,          15.
   1688,          7.5, 0.0599999987,          15.
   1689,          7.5, 0.0900000036,          15.
   1690,          7.5,  0.119999997,          15.
   1691,          7.5, 0.0299999993,         17.5
   1692,          7.5, 0.0599999987,         17.5
   1693,          7.5, 0.0900000036,         17.5
   1694,          7.5,  0.119999997,         17.5
   1695,          7.5, 0.0299999993,          20.
   1696,          7.5, 0.0599999987,          20.
   1697,          7.5, 0.0900000036,          20.
   1698,          7.5,  0.119999997,          20.
   1699,          7.5, 0.0299999993,         22.5
   1700,          7.5, 0.0599999987,         22.5
   1701,          7.5, 0.0900000036,         22.5
   1702,          7.5,  0.119999997,         22.5
   1703,           5., 0.0299999993,          15.
   1704,           5., 0.0599999987,          15.
   1705,           5., 0.0900000036,          15.
   1706,           5.,  0.119999997,          15.
   1707,           5., 0.0299999993,         17.5
   1708,           5., 0.0599999987,         17.5
   1709,           5., 0.0900000036,         17.5
   1710,           5.,  0.119999997,         17.5
   1711,           5., 0.0299999993,          20.
   1712,           5., 0.0599999987,          20.
   1713,           5., 0.0900000036,          20.
   1714,           5.,  0.119999997,          20.
   1715,           5., 0.0299999993,         22.5
   1716,           5., 0.0599999987,         22.5
   1717,           5., 0.0900000036,         22.5
   1718,           5.,  0.119999997,         22.5
   1719,          2.5, 0.0299999993,          15.
   1720,          2.5, 0.0599999987,          15.
   1721,          2.5, 0.0900000036,          15.
   1722,          2.5,  0.119999997,          15.
   1723,          2.5, 0.0299999993,         17.5
   1724,          2.5, 0.0599999987,         17.5
   1725,          2.5, 0.0900000036,         17.5
   1726,          2.5,  0.119999997,         17.5
   1727,          2.5, 0.0299999993,          20.
   1728,          2.5, 0.0599999987,          20.
   1729,          2.5, 0.0900000036,          20.
   1730,          2.5,  0.119999997,          20.
   1731,          2.5, 0.0299999993,         22.5
   1732,          2.5, 0.0599999987,         22.5
   1733,          2.5, 0.0900000036,         22.5
   1734,          2.5,  0.119999997,         22.5
   1735,         47.5,  0.119999997,   4.42857122
   1736,         47.5, 0.0900000036,   4.42857122
   1737,         47.5, 0.0599999987,   4.42857122
   1738,         47.5, 0.0299999993,   4.42857122
   1739,         47.5,  0.119999997,   3.85714293
   1740,         47.5, 0.0900000036,   3.85714293
   1741,         47.5, 0.0599999987,   3.85714293
   1742,         47.5, 0.0299999993,   3.85714293
   1743,         47.5,  0.119999997,   3.28571439
   1744,         47.5, 0.0900000036,   3.28571439
   1745,         47.5, 0.0599999987,   3.28571439
   1746,         47.5, 0.0299999993,   3.28571439
   1747,         47.5,  0.119999997,   2.71428561
   1748,         47.5, 0.0900000036,   2.71428561
   1749,         47.5, 0.0599999987,   2.71428561
   1750,         47.5, 0.0299999993,   2.71428561
   1751,         47.5,  0.119999997,   2.14285707
   1752,         47.5, 0.0900000036,   2.14285707
   1753,         47.5, 0.0599999987,   2.14285707
   1754,         47.5, 0.0299999993,   2.14285707
   1755,         47.5,  0.119999997,   1.57142854
   1756,         47.5, 0.0900000036,   1.57142854
   1757,         47.5, 0.0599999987,   1.57142854
   1758,         47.5, 0.0299999993,   1.57142854
   1759,          45.,  0.119999997,   4.42857122
   1760,          45., 0.0900000036,   4.42857122
   1761,          45., 0.0599999987,   4.42857122
   1762,          45., 0.0299999993,   4.42857122
   1763,          45.,  0.119999997,   3.85714293
   1764,          45., 0.0900000036,   3.85714293
   1765,          45., 0.0599999987,   3.85714293
   1766,          45., 0.0299999993,   3.85714293
   1767,          45.,  0.119999997,   3.28571439
   1768,          45., 0.0900000036,   3.28571439
   1769,          45., 0.0599999987,   3.28571439
   1770,          45., 0.0299999993,   3.28571439
   1771,          45.,  0.119999997,   2.71428561
   1772,          45., 0.0900000036,   2.71428561
   1773,          45., 0.0599999987,   2.71428561
   1774,          45., 0.0299999993,   2.71428561
   1775,          45.,  0.119999997,   2.14285707
   1776,          45., 0.0900000036,   2.14285707
   1777,          45., 0.0599999987,   2.14285707
   1778,          45., 0.0299999993,   2.14285707
   1779,          45.,  0.119999997,   1.57142854
   1780,          45., 0.0900000036,   1.57142854
   1781,          45., 0.0599999987,   1.57142854
   1782,          45., 0.0299999993,   1.57142854
   1783,         42.5,  0.119999997,   4.42857122
   1784,         42.5, 0.0900000036,   4.42857122
   1785,         42.5, 0.0599999987,   4.42857122
   1786,         42.5, 0.0299999993,   4.42857122
   1787,         42.5,  0.119999997,   3.85714293
   1788,         42.5, 0.0900000036,   3.85714293
   1789,         42.5, 0.0599999987,   3.85714293
   1790,         42.5, 0.0299999993,   3.85714293
   1791,         42.5,  0.119999997,   3.28571439
   1792,         42.5, 0.0900000036,   3.28571439
   1793,         42.5, 0.0599999987,   3.28571439
   1794,         42.5, 0.0299999993,   3.28571439
   1795,         42.5,  0.119999997,   2.71428561
   1796,         42.5, 0.0900000036,   2.71428561
   1797,         42.5, 0.0599999987,   2.71428561
   1798,         42.5, 0.0299999993,   2.71428561
   1799,         42.5,  0.119999997,   2.14285707
   1800,         42.5, 0.0900000036,   2.14285707
   1801,         42.5, 0.0599999987,   2.14285707
   1802,         42.5, 0.0299999993,   2.14285707
   1803,         42.5,  0.119999997,   1.57142854
   1804,         42.5, 0.0900000036,   1.57142854
   1805,         42.5, 0.0599999987,   1.57142854
   1806,         42.5, 0.0299999993,   1.57142854
   1807,          40.,  0.119999997,   4.42857122
   1808,          40., 0.0900000036,   4.42857122
   1809,          40., 0.0599999987,   4.42857122
   1810,          40., 0.0299999993,   4.42857122
   1811,          40.,  0.119999997,   3.85714293
   1812,          40., 0.0900000036,   3.85714293
   1813,          40., 0.0599999987,   3.85714293
   1814,          40., 0.0299999993,   3.85714293
   1815,          40.,  0.119999997,   3.28571439
   1816,          40., 0.0900000036,   3.28571439
   1817,          40., 0.0599999987,   3.28571439
   1818,          40., 0.0299999993,   3.28571439
   1819,          40.,  0.119999997,   2.71428561
   1820,          40., 0.0900000036,   2.71428561
   1821,          40., 0.0599999987,   2.71428561
   1822,          40., 0.0299999993,   2.71428561
   1823,          40.,  0.119999997,   2.14285707
   1824,          40., 0.0900000036,   2.14285707
   1825,          40., 0.0599999987,   2.14285707
   1826,          40., 0.0299999993,   2.14285707
   1827,          40.,  0.119999997,   1.57142854
   1828,          40., 0.0900000036,   1.57142854
   1829,          40., 0.0599999987,   1.57142854
   1830,          40., 0.0299999993,   1.57142854
   1831,         37.5,  0.119999997,   4.42857122
   1832,         37.5, 0.0900000036,   4.42857122
   1833,         37.5, 0.0599999987,   4.42857122
   1834,         37.5, 0.0299999993,   4.42857122
   1835,         37.5,  0.119999997,   3.85714293
   1836,         37.5, 0.0900000036,   3.85714293
   1837,         37.5, 0.0599999987,   3.85714293
   1838,         37.5, 0.0299999993,   3.85714293
   1839,         37.5,  0.119999997,   3.28571439
   1840,         37.5, 0.0900000036,   3.28571439
   1841,         37.5, 0.0599999987,   3.28571439
   1842,         37.5, 0.0299999993,   3.28571439
   1843,         37.5,  0.119999997,   2.71428561
   1844,         37.5, 0.0900000036,   2.71428561
   1845,         37.5, 0.0599999987,   2.71428561
   1846,         37.5, 0.0299999993,   2.71428561
   1847,         37.5,  0.119999997,   2.14285707
   1848,         37.5, 0.0900000036,   2.14285707
   1849,         37.5, 0.0599999987,   2.14285707
   1850,         37.5, 0.0299999993,   2.14285707
   1851,         37.5,  0.119999997,   1.57142854
   1852,         37.5, 0.0900000036,   1.57142854
   1853,         37.5, 0.0599999987,   1.57142854
   1854,         37.5, 0.0299999993,   1.57142854
   1855,          35.,  0.119999997,   4.42857122
   1856,          35., 0.0900000036,   4.42857122
   1857,          35., 0.0599999987,   4.42857122
   1858,          35., 0.0299999993,   4.42857122
   1859,          35.,  0.119999997,   3.85714293
   1860,          35., 0.0900000036,   3.85714293
   1861,          35., 0.0599999987,   3.85714293
   1862,          35., 0.0299999993,   3.85714293
   1863,          35.,  0.119999997,   3.28571439
   1864,          35., 0.0900000036,   3.28571439
   1865,          35., 0.0599999987,   3.28571439
   1866,          35., 0.0299999993,   3.28571439
   1867,          35.,  0.119999997,   2.71428561
   1868,          35., 0.0900000036,   2.71428561
   1869,          35., 0.0599999987,   2.71428561
   1870,          35., 0.0299999993,   2.71428561
   1871,          35.,  0.119999997,   2.14285707
   1872,          35., 0.0900000036,   2.14285707
   1873,          35., 0.0599999987,   2.14285707
   1874,          35., 0.0299999993,   2.14285707
   1875,          35.,  0.119999997,   1.57142854
   1876,          35., 0.0900000036,   1.57142854
   1877,          35., 0.0599999987,   1.57142854
   1878,          35., 0.0299999993,   1.57142854
   1879,         32.5,  0.119999997,   4.42857122
   1880,         32.5, 0.0900000036,   4.42857122
   1881,         32.5, 0.0599999987,   4.42857122
   1882,         32.5, 0.0299999993,   4.42857122
   1883,         32.5,  0.119999997,   3.85714293
   1884,         32.5, 0.0900000036,   3.85714293
   1885,         32.5, 0.0599999987,   3.85714293
   1886,         32.5, 0.0299999993,   3.85714293
   1887,         32.5,  0.119999997,   3.28571439
   1888,         32.5, 0.0900000036,   3.28571439
   1889,         32.5, 0.0599999987,   3.28571439
   1890,         32.5, 0.0299999993,   3.28571439
   1891,         32.5,  0.119999997,   2.71428561
   1892,         32.5, 0.0900000036,   2.71428561
   1893,         32.5, 0.0599999987,   2.71428561
   1894,         32.5, 0.0299999993,   2.71428561
   1895,         32.5,  0.119999997,   2.14285707
   1896,         32.5, 0.0900000036,   2.14285707
   1897,         32.5, 0.0599999987,   2.14285707
   1898,         32.5, 0.0299999993,   2.14285707
   1899,         32.5,  0.119999997,   1.57142854
   1900,         32.5, 0.0900000036,   1.57142854
   1901,         32.5, 0.0599999987,   1.57142854
   1902,         32.5, 0.0299999993,   1.57142854
   1903,          30.,  0.119999997,   4.42857122
   1904,          30., 0.0900000036,   4.42857122
   1905,          30., 0.0599999987,   4.42857122
   1906,          30., 0.0299999993,   4.42857122
   1907,          30.,  0.119999997,   3.85714293
   1908,          30., 0.0900000036,   3.85714293
   1909,          30., 0.0599999987,   3.85714293
   1910,          30., 0.0299999993,   3.85714293
   1911,          30.,  0.119999997,   3.28571439
   1912,          30., 0.0900000036,   3.28571439
   1913,          30., 0.0599999987,   3.28571439
   1914,          30., 0.0299999993,   3.28571439
   1915,          30.,  0.119999997,   2.71428561
   1916,          30., 0.0900000036,   2.71428561
   1917,          30., 0.0599999987,   2.71428561
   1918,          30., 0.0299999993,   2.71428561
   1919,          30.,  0.119999997,   2.14285707
   1920,          30., 0.0900000036,   2.14285707
   1921,          30., 0.0599999987,   2.14285707
   1922,          30., 0.0299999993,   2.14285707
   1923,          30.,  0.119999997,   1.57142854
   1924,          30., 0.0900000036,   1.57142854
   1925,          30., 0.0599999987,   1.57142854
   1926,          30., 0.0299999993,   1.57142854
   1927,         27.5,  0.119999997,   4.42857122
   1928,         27.5, 0.0900000036,   4.42857122
   1929,         27.5, 0.0599999987,   4.42857122
   1930,         27.5, 0.0299999993,   4.42857122
   1931,         27.5,  0.119999997,   3.85714293
   1932,         27.5, 0.0900000036,   3.85714293
   1933,         27.5, 0.0599999987,   3.85714293
   1934,         27.5, 0.0299999993,   3.85714293
   1935,         27.5,  0.119999997,   3.28571439
   1936,         27.5, 0.0900000036,   3.28571439
   1937,         27.5, 0.0599999987,   3.28571439
   1938,         27.5, 0.0299999993,   3.28571439
   1939,         27.5,  0.119999997,   2.71428561
   1940,         27.5, 0.0900000036,   2.71428561
   1941,         27.5, 0.0599999987,   2.71428561
   1942,         27.5, 0.0299999993,   2.71428561
   1943,         27.5,  0.119999997,   2.14285707
   1944,         27.5, 0.0900000036,   2.14285707
   1945,         27.5, 0.0599999987,   2.14285707
   1946,         27.5, 0.0299999993,   2.14285707
   1947,         27.5,  0.119999997,   1.57142854
   1948,         27.5, 0.0900000036,   1.57142854
   1949,         27.5, 0.0599999987,   1.57142854
   1950,         27.5, 0.0299999993,   1.57142854
   1951,          25.,  0.119999997,   4.42857122
   1952,          25., 0.0900000036,   4.42857122
   1953,          25., 0.0599999987,   4.42857122
   1954,          25., 0.0299999993,   4.42857122
   1955,          25.,  0.119999997,   3.85714293
   1956,          25., 0.0900000036,   3.85714293
   1957,          25., 0.0599999987,   3.85714293
   1958,          25., 0.0299999993,   3.85714293
   1959,          25.,  0.119999997,   3.28571439
   1960,          25., 0.0900000036,   3.28571439
   1961,          25., 0.0599999987,   3.28571439
   1962,          25., 0.0299999993,   3.28571439
   1963,          25.,  0.119999997,   2.71428561
   1964,          25., 0.0900000036,   2.71428561
   1965,          25., 0.0599999987,   2.71428561
   1966,          25., 0.0299999993,   2.71428561
   1967,          25.,  0.119999997,   2.14285707
   1968,          25., 0.0900000036,   2.14285707
   1969,          25., 0.0599999987,   2.14285707
   1970,          25., 0.0299999993,   2.14285707
   1971,          25.,  0.119999997,   1.57142854
   1972,          25., 0.0900000036,   1.57142854
   1973,          25., 0.0599999987,   1.57142854
   1974,          25., 0.0299999993,   1.57142854
   1975,         22.5,  0.119999997,   4.42857122
   1976,         22.5, 0.0900000036,   4.42857122
   1977,         22.5, 0.0599999987,   4.42857122
   1978,         22.5, 0.0299999993,   4.42857122
   1979,         22.5,  0.119999997,   3.85714293
   1980,         22.5, 0.0900000036,   3.85714293
   1981,         22.5, 0.0599999987,   3.85714293
   1982,         22.5, 0.0299999993,   3.85714293
   1983,         22.5,  0.119999997,   3.28571439
   1984,         22.5, 0.0900000036,   3.28571439
   1985,         22.5, 0.0599999987,   3.28571439
   1986,         22.5, 0.0299999993,   3.28571439
   1987,         22.5,  0.119999997,   2.71428561
   1988,         22.5, 0.0900000036,   2.71428561
   1989,         22.5, 0.0599999987,   2.71428561
   1990,         22.5, 0.0299999993,   2.71428561
   1991,         22.5,  0.119999997,   2.14285707
   1992,         22.5, 0.0900000036,   2.14285707
   1993,         22.5, 0.0599999987,   2.14285707
   1994,         22.5, 0.0299999993,   2.14285707
   1995,         22.5,  0.119999997,   1.57142854
   1996,         22.5, 0.0900000036,   1.57142854
   1997,         22.5, 0.0599999987,   1.57142854
   1998,         22.5, 0.0299999993,   1.57142854
   1999,          20.,  0.119999997,   4.42857122
   2000,          20., 0.0900000036,   4.42857122
   2001,          20., 0.0599999987,   4.42857122
   2002,          20., 0.0299999993,   4.42857122
   2003,          20.,  0.119999997,   3.85714293
   2004,          20., 0.0900000036,   3.85714293
   2005,          20., 0.0599999987,   3.85714293
   2006,          20., 0.0299999993,   3.85714293
   2007,          20.,  0.119999997,   3.28571439
   2008,          20., 0.0900000036,   3.28571439
   2009,          20., 0.0599999987,   3.28571439
   2010,          20., 0.0299999993,   3.28571439
   2011,          20.,  0.119999997,   2.71428561
   2012,          20., 0.0900000036,   2.71428561
   2013,          20., 0.0599999987,   2.71428561
   2014,          20., 0.0299999993,   2.71428561
   2015,          20.,  0.119999997,   2.14285707
   2016,          20., 0.0900000036,   2.14285707
   2017,          20., 0.0599999987,   2.14285707
   2018,          20., 0.0299999993,   2.14285707
   2019,          20.,  0.119999997,   1.57142854
   2020,          20., 0.0900000036,   1.57142854
   2021,          20., 0.0599999987,   1.57142854
   2022,          20., 0.0299999993,   1.57142854
   2023,         17.5,  0.119999997,   4.42857122
   2024,         17.5, 0.0900000036,   4.42857122
   2025,         17.5, 0.0599999987,   4.42857122
   2026,         17.5, 0.0299999993,   4.42857122
   2027,         17.5,  0.119999997,   3.85714293
   2028,         17.5, 0.0900000036,   3.85714293
   2029,         17.5, 0.0599999987,   3.85714293
   2030,         17.5, 0.0299999993,   3.85714293
   2031,         17.5,  0.119999997,   3.28571439
   2032,         17.5, 0.0900000036,   3.28571439
   2033,         17.5, 0.0599999987,   3.28571439
   2034,         17.5, 0.0299999993,   3.28571439
   2035,         17.5,  0.119999997,   2.71428561
   2036,         17.5, 0.0900000036,   2.71428561
   2037,         17.5, 0.0599999987,   2.71428561
   2038,         17.5, 0.0299999993,   2.71428561
   2039,         17.5,  0.119999997,   2.14285707
   2040,         17.5, 0.0900000036,   2.14285707
   2041,         17.5, 0.0599999987,   2.14285707
   2042,         17.5, 0.0299999993,   2.14285707
   2043,         17.5,  0.119999997,   1.57142854
   2044,         17.5, 0.0900000036,   1.57142854
   2045,         17.5, 0.0599999987,   1.57142854
   2046,         17.5, 0.0299999993,   1.57142854
   2047,          15.,  0.119999997,   4.42857122
   2048,          15., 0.0900000036,   4.42857122
   2049,          15., 0.0599999987,   4.42857122
   2050,          15., 0.0299999993,   4.42857122
   2051,          15.,  0.119999997,   3.85714293
   2052,          15., 0.0900000036,   3.85714293
   2053,          15., 0.0599999987,   3.85714293
   2054,          15., 0.0299999993,   3.85714293
   2055,          15.,  0.119999997,   3.28571439
   2056,          15., 0.0900000036,   3.28571439
   2057,          15., 0.0599999987,   3.28571439
   2058,          15., 0.0299999993,   3.28571439
   2059,          15.,  0.119999997,   2.71428561
   2060,          15., 0.0900000036,   2.71428561
   2061,          15., 0.0599999987,   2.71428561
   2062,          15., 0.0299999993,   2.71428561
   2063,          15.,  0.119999997,   2.14285707
   2064,          15., 0.0900000036,   2.14285707
   2065,          15., 0.0599999987,   2.14285707
   2066,          15., 0.0299999993,   2.14285707
   2067,          15.,  0.119999997,   1.57142854
   2068,          15., 0.0900000036,   1.57142854
   2069,          15., 0.0599999987,   1.57142854
   2070,          15., 0.0299999993,   1.57142854
   2071,         12.5,  0.119999997,   4.42857122
   2072,         12.5, 0.0900000036,   4.42857122
   2073,         12.5, 0.0599999987,   4.42857122
   2074,         12.5, 0.0299999993,   4.42857122
   2075,         12.5,  0.119999997,   3.85714293
   2076,         12.5, 0.0900000036,   3.85714293
   2077,         12.5, 0.0599999987,   3.85714293
   2078,         12.5, 0.0299999993,   3.85714293
   2079,         12.5,  0.119999997,   3.28571439
   2080,         12.5, 0.0900000036,   3.28571439
   2081,         12.5, 0.0599999987,   3.28571439
   2082,         12.5, 0.0299999993,   3.28571439
   2083,         12.5,  0.119999997,   2.71428561
   2084,         12.5, 0.0900000036,   2.71428561
   2085,         12.5, 0.0599999987,   2.71428561
   2086,         12.5, 0.0299999993,   2.71428561
   2087,         12.5,  0.119999997,   2.14285707
   2088,         12.5, 0.0900000036,   2.14285707
   2089,         12.5, 0.0599999987,   2.14285707
   2090,         12.5, 0.0299999993,   2.14285707
   2091,         12.5,  0.119999997,   1.57142854
   2092,         12.5, 0.0900000036,   1.57142854
   2093,         12.5, 0.0599999987,   1.57142854
   2094,         12.5, 0.0299999993,   1.57142854
   2095,          10.,  0.119999997,   4.42857122
   2096,          10., 0.0900000036,   4.42857122
   2097,          10., 0.0599999987,   4.42857122
   2098,          10., 0.0299999993,   4.42857122
   2099,          10.,  0.119999997,   3.85714293
   2100,          10., 0.0900000036,   3.85714293
   2101,          10., 0.0599999987,   3.85714293
   2102,          10., 0.0299999993,   3.85714293
   2103,          10.,  0.119999997,   3.28571439
   2104,          10., 0.0900000036,   3.28571439
   2105,          10., 0.0599999987,   3.28571439
   2106,          10., 0.0299999993,   3.28571439
   2107,          10.,  0.119999997,   2.71428561
   2108,          10., 0.0900000036,   2.71428561
   2109,          10., 0.0599999987,   2.71428561
   2110,          10., 0.0299999993,   2.71428561
   2111,          10.,  0.119999997,   2.14285707
   2112,          10., 0.0900000036,   2.14285707
   2113,          10., 0.0599999987,   2.14285707
   2114,          10., 0.0299999993,   2.14285707
   2115,          10.,  0.119999997,   1.57142854
   2116,          10., 0.0900000036,   1.57142854
   2117,          10., 0.0599999987,   1.57142854
   2118,          10., 0.0299999993,   1.57142854
   2119,          7.5,  0.119999997,   4.42857122
   2120,          7.5, 0.0900000036,   4.42857122
   2121,          7.5, 0.0599999987,   4.42857122
   2122,          7.5, 0.0299999993,   4.42857122
   2123,          7.5,  0.119999997,   3.85714293
   2124,          7.5, 0.0900000036,   3.85714293
   2125,          7.5, 0.0599999987,   3.85714293
   2126,          7.5, 0.0299999993,   3.85714293
   2127,          7.5,  0.119999997,   3.28571439
   2128,          7.5, 0.0900000036,   3.28571439
   2129,          7.5, 0.0599999987,   3.28571439
   2130,          7.5, 0.0299999993,   3.28571439
   2131,          7.5,  0.119999997,   2.71428561
   2132,          7.5, 0.0900000036,   2.71428561
   2133,          7.5, 0.0599999987,   2.71428561
   2134,          7.5, 0.0299999993,   2.71428561
   2135,          7.5,  0.119999997,   2.14285707
   2136,          7.5, 0.0900000036,   2.14285707
   2137,          7.5, 0.0599999987,   2.14285707
   2138,          7.5, 0.0299999993,   2.14285707
   2139,          7.5,  0.119999997,   1.57142854
   2140,          7.5, 0.0900000036,   1.57142854
   2141,          7.5, 0.0599999987,   1.57142854
   2142,          7.5, 0.0299999993,   1.57142854
   2143,           5.,  0.119999997,   4.42857122
   2144,           5., 0.0900000036,   4.42857122
   2145,           5., 0.0599999987,   4.42857122
   2146,           5., 0.0299999993,   4.42857122
   2147,           5.,  0.119999997,   3.85714293
   2148,           5., 0.0900000036,   3.85714293
   2149,           5., 0.0599999987,   3.85714293
   2150,           5., 0.0299999993,   3.85714293
   2151,           5.,  0.119999997,   3.28571439
   2152,           5., 0.0900000036,   3.28571439
   2153,           5., 0.0599999987,   3.28571439
   2154,           5., 0.0299999993,   3.28571439
   2155,           5.,  0.119999997,   2.71428561
   2156,           5., 0.0900000036,   2.71428561
   2157,           5., 0.0599999987,   2.71428561
   2158,           5., 0.0299999993,   2.71428561
   2159,           5.,  0.119999997,   2.14285707
   2160,           5., 0.0900000036,   2.14285707
   2161,           5., 0.0599999987,   2.14285707
   2162,           5., 0.0299999993,   2.14285707
   2163,           5.,  0.119999997,   1.57142854
   2164,           5., 0.0900000036,   1.57142854
   2165,           5., 0.0599999987,   1.57142854
   2166,           5., 0.0299999993,   1.57142854
   2167,          2.5,  0.119999997,   4.42857122
   2168,          2.5, 0.0900000036,   4.42857122
   2169,          2.5, 0.0599999987,   4.42857122
   2170,          2.5, 0.0299999993,   4.42857122
   2171,          2.5,  0.119999997,   3.85714293
   2172,          2.5, 0.0900000036,   3.85714293
   2173,          2.5, 0.0599999987,   3.85714293
   2174,          2.5, 0.0299999993,   3.85714293
   2175,          2.5,  0.119999997,   3.28571439
   2176,          2.5, 0.0900000036,   3.28571439
   2177,          2.5, 0.0599999987,   3.28571439
   2178,          2.5, 0.0299999993,   3.28571439
   2179,          2.5,  0.119999997,   2.71428561
   2180,          2.5, 0.0900000036,   2.71428561
   2181,          2.5, 0.0599999987,   2.71428561
   2182,          2.5, 0.0299999993,   2.71428561
   2183,          2.5,  0.119999997,   2.14285707
   2184,          2.5, 0.0900000036,   2.14285707
   2185,          2.5, 0.0599999987,   2.14285707
   2186,          2.5, 0.0299999993,   2.14285707
   2187,          2.5,  0.119999997,   1.57142854
   2188,          2.5, 0.0900000036,   1.57142854
   2189,          2.5, 0.0599999987,   1.57142854
   2190,          2.5, 0.0299999993,   1.57142854
   2191,         47.5,  0.119999997,          11.
   2192,         47.5, 0.0900000036,          11.
   2193,         47.5, 0.0599999987,          11.
   2194,         47.5, 0.0299999993,          11.
   2195,         47.5,  0.119999997,          9.5
   2196,         47.5, 0.0900000036,          9.5
   2197,         47.5, 0.0599999987,          9.5
   2198,         47.5, 0.0299999993,          9.5
   2199,         47.5,  0.119999997,           8.
   2200,         47.5, 0.0900000036,           8.
   2201,         47.5, 0.0599999987,           8.
   2202,         47.5, 0.0299999993,           8.
   2203,         47.5,  0.119999997,          6.5
   2204,         47.5, 0.0900000036,          6.5
   2205,         47.5, 0.0599999987,          6.5
   2206,         47.5, 0.0299999993,          6.5
   2207,          45.,  0.119999997,          11.
   2208,          45., 0.0900000036,          11.
   2209,          45., 0.0599999987,          11.
   2210,          45., 0.0299999993,          11.
   2211,          45.,  0.119999997,          9.5
   2212,          45., 0.0900000036,          9.5
   2213,          45., 0.0599999987,          9.5
   2214,          45., 0.0299999993,          9.5
   2215,          45.,  0.119999997,           8.
   2216,          45., 0.0900000036,           8.
   2217,          45., 0.0599999987,           8.
   2218,          45., 0.0299999993,           8.
   2219,          45.,  0.119999997,          6.5
   2220,          45., 0.0900000036,          6.5
   2221,          45., 0.0599999987,          6.5
   2222,          45., 0.0299999993,          6.5
   2223,         42.5,  0.119999997,          11.
   2224,         42.5, 0.0900000036,          11.
   2225,         42.5, 0.0599999987,          11.
   2226,         42.5, 0.0299999993,          11.
   2227,         42.5,  0.119999997,          9.5
   2228,         42.5, 0.0900000036,          9.5
   2229,         42.5, 0.0599999987,          9.5
   2230,         42.5, 0.0299999993,          9.5
   2231,         42.5,  0.119999997,           8.
   2232,         42.5, 0.0900000036,           8.
   2233,         42.5, 0.0599999987,           8.
   2234,         42.5, 0.0299999993,           8.
   2235,         42.5,  0.119999997,          6.5
   2236,         42.5, 0.0900000036,          6.5
   2237,         42.5, 0.0599999987,          6.5
   2238,         42.5, 0.0299999993,          6.5
   2239,          40.,  0.119999997,          11.
   2240,          40., 0.0900000036,          11.
   2241,          40., 0.0599999987,          11.
   2242,          40., 0.0299999993,          11.
   2243,          40.,  0.119999997,          9.5
   2244,          40., 0.0900000036,          9.5
   2245,          40., 0.0599999987,          9.5
   2246,          40., 0.0299999993,          9.5
   2247,          40.,  0.119999997,           8.
   2248,          40., 0.0900000036,           8.
   2249,          40., 0.0599999987,           8.
   2250,          40., 0.0299999993,           8.
   2251,          40.,  0.119999997,          6.5
   2252,          40., 0.0900000036,          6.5
   2253,          40., 0.0599999987,          6.5
   2254,          40., 0.0299999993,          6.5
   2255,         37.5,  0.119999997,          11.
   2256,         37.5, 0.0900000036,          11.
   2257,         37.5, 0.0599999987,          11.
   2258,         37.5, 0.0299999993,          11.
   2259,         37.5,  0.119999997,          9.5
   2260,         37.5, 0.0900000036,          9.5
   2261,         37.5, 0.0599999987,          9.5
   2262,         37.5, 0.0299999993,          9.5
   2263,         37.5,  0.119999997,           8.
   2264,         37.5, 0.0900000036,           8.
   2265,         37.5, 0.0599999987,           8.
   2266,         37.5, 0.0299999993,           8.
   2267,         37.5,  0.119999997,          6.5
   2268,         37.5, 0.0900000036,          6.5
   2269,         37.5, 0.0599999987,          6.5
   2270,         37.5, 0.0299999993,          6.5
   2271,          35.,  0.119999997,          11.
   2272,          35., 0.0900000036,          11.
   2273,          35., 0.0599999987,          11.
   2274,          35., 0.0299999993,          11.
   2275,          35.,  0.119999997,          9.5
   2276,          35., 0.0900000036,          9.5
   2277,          35., 0.0599999987,          9.5
   2278,          35., 0.0299999993,          9.5
   2279,          35.,  0.119999997,           8.
   2280,          35., 0.0900000036,           8.
   2281,          35., 0.0599999987,           8.
   2282,          35., 0.0299999993,           8.
   2283,          35.,  0.119999997,          6.5
   2284,          35., 0.0900000036,          6.5
   2285,          35., 0.0599999987,          6.5
   2286,          35., 0.0299999993,          6.5
   2287,         32.5,  0.119999997,          11.
   2288,         32.5, 0.0900000036,          11.
   2289,         32.5, 0.0599999987,          11.
   2290,         32.5, 0.0299999993,          11.
   2291,         32.5,  0.119999997,          9.5
   2292,         32.5, 0.0900000036,          9.5
   2293,         32.5, 0.0599999987,          9.5
   2294,         32.5, 0.0299999993,          9.5
   2295,         32.5,  0.119999997,           8.
   2296,         32.5, 0.0900000036,           8.
   2297,         32.5, 0.0599999987,           8.
   2298,         32.5, 0.0299999993,           8.
   2299,         32.5,  0.119999997,          6.5
   2300,         32.5, 0.0900000036,          6.5
   2301,         32.5, 0.0599999987,          6.5
   2302,         32.5, 0.0299999993,          6.5
   2303,          30.,  0.119999997,          11.
   2304,          30., 0.0900000036,          11.
   2305,          30., 0.0599999987,          11.
   2306,          30., 0.0299999993,          11.
   2307,          30.,  0.119999997,          9.5
   2308,          30., 0.0900000036,          9.5
   2309,          30., 0.0599999987,          9.5
   2310,          30., 0.0299999993,          9.5
   2311,          30.,  0.119999997,           8.
   2312,          30., 0.0900000036,           8.
   2313,          30., 0.0599999987,           8.
   2314,          30., 0.0299999993,           8.
   2315,          30.,  0.119999997,          6.5
   2316,          30., 0.0900000036,          6.5
   2317,          30., 0.0599999987,          6.5
   2318,          30., 0.0299999993,          6.5
   2319,         27.5,  0.119999997,          11.
   2320,         27.5, 0.0900000036,          11.
   2321,         27.5, 0.0599999987,          11.
   2322,         27.5, 0.0299999993,          11.
   2323,         27.5,  0.119999997,          9.5
   2324,         27.5, 0.0900000036,          9.5
   2325,         27.5, 0.0599999987,          9.5
   2326,         27.5, 0.0299999993,          9.5
   2327,         27.5,  0.119999997,           8.
   2328,         27.5, 0.0900000036,           8.
   2329,         27.5, 0.0599999987,           8.
   2330,         27.5, 0.0299999993,           8.
   2331,         27.5,  0.119999997,          6.5
   2332,         27.5, 0.0900000036,          6.5
   2333,         27.5, 0.0599999987,          6.5
   2334,         27.5, 0.0299999993,          6.5
   2335,          25.,  0.119999997,          11.
   2336,          25., 0.0900000036,          11.
   2337,          25., 0.0599999987,          11.
   2338,          25., 0.0299999993,          11.
   2339,          25.,  0.119999997,          9.5
   2340,          25., 0.0900000036,          9.5
   2341,          25., 0.0599999987,          9.5
   2342,          25., 0.0299999993,          9.5
   2343,          25.,  0.119999997,           8.
   2344,          25., 0.0900000036,           8.
   2345,          25., 0.0599999987,           8.
   2346,          25., 0.0299999993,           8.
   2347,          25.,  0.119999997,          6.5
   2348,          25., 0.0900000036,          6.5
   2349,          25., 0.0599999987,          6.5
   2350,          25., 0.0299999993,          6.5
   2351,         22.5,  0.119999997,          11.
   2352,         22.5, 0.0900000036,          11.
   2353,         22.5, 0.0599999987,          11.
   2354,         22.5, 0.0299999993,          11.
   2355,         22.5,  0.119999997,          9.5
   2356,         22.5, 0.0900000036,          9.5
   2357,         22.5, 0.0599999987,          9.5
   2358,         22.5, 0.0299999993,          9.5
   2359,         22.5,  0.119999997,           8.
   2360,         22.5, 0.0900000036,           8.
   2361,         22.5, 0.0599999987,           8.
   2362,         22.5, 0.0299999993,           8.
   2363,         22.5,  0.119999997,          6.5
   2364,         22.5, 0.0900000036,          6.5
   2365,         22.5, 0.0599999987,          6.5
   2366,         22.5, 0.0299999993,          6.5
   2367,          20.,  0.119999997,          11.
   2368,          20., 0.0900000036,          11.
   2369,          20., 0.0599999987,          11.
   2370,          20., 0.0299999993,          11.
   2371,          20.,  0.119999997,          9.5
   2372,          20., 0.0900000036,          9.5
   2373,          20., 0.0599999987,          9.5
   2374,          20., 0.0299999993,          9.5
   2375,          20.,  0.119999997,           8.
   2376,          20., 0.0900000036,           8.
   2377,          20., 0.0599999987,           8.
   2378,          20., 0.0299999993,           8.
   2379,          20.,  0.119999997,          6.5
   2380,          20., 0.0900000036,          6.5
   2381,          20., 0.0599999987,          6.5
   2382,          20., 0.0299999993,          6.5
   2383,         17.5,  0.119999997,          11.
   2384,         17.5, 0.0900000036,          11.
   2385,         17.5, 0.0599999987,          11.
   2386,         17.5, 0.0299999993,          11.
   2387,         17.5,  0.119999997,          9.5
   2388,         17.5, 0.0900000036,          9.5
   2389,         17.5, 0.0599999987,          9.5
   2390,         17.5, 0.0299999993,          9.5
   2391,         17.5,  0.119999997,           8.
   2392,         17.5, 0.0900000036,           8.
   2393,         17.5, 0.0599999987,           8.
   2394,         17.5, 0.0299999993,           8.
   2395,         17.5,  0.119999997,          6.5
   2396,         17.5, 0.0900000036,          6.5
   2397,         17.5, 0.0599999987,          6.5
   2398,         17.5, 0.0299999993,          6.5
   2399,          15.,  0.119999997,          11.
   2400,          15., 0.0900000036,          11.
   2401,          15., 0.0599999987,          11.
   2402,          15., 0.0299999993,          11.
   2403,          15.,  0.119999997,          9.5
   2404,          15., 0.0900000036,          9.5
   2405,          15., 0.0599999987,          9.5
   2406,          15., 0.0299999993,          9.5
   2407,          15.,  0.119999997,           8.
   2408,          15., 0.0900000036,           8.
   2409,          15., 0.0599999987,           8.
   2410,          15., 0.0299999993,           8.
   2411,          15.,  0.119999997,          6.5
   2412,          15., 0.0900000036,          6.5
   2413,          15., 0.0599999987,          6.5
   2414,          15., 0.0299999993,          6.5
   2415,         12.5,  0.119999997,          11.
   2416,         12.5, 0.0900000036,          11.
   2417,         12.5, 0.0599999987,          11.
   2418,         12.5, 0.0299999993,          11.
   2419,         12.5,  0.119999997,          9.5
   2420,         12.5, 0.0900000036,          9.5
   2421,         12.5, 0.0599999987,          9.5
   2422,         12.5, 0.0299999993,          9.5
   2423,         12.5,  0.119999997,           8.
   2424,         12.5, 0.0900000036,           8.
   2425,         12.5, 0.0599999987,           8.
   2426,         12.5, 0.0299999993,           8.
   2427,         12.5,  0.119999997,          6.5
   2428,         12.5, 0.0900000036,          6.5
   2429,         12.5, 0.0599999987,          6.5
   2430,         12.5, 0.0299999993,          6.5
   2431,          10.,  0.119999997,          11.
   2432,          10., 0.0900000036,          11.
   2433,          10., 0.0599999987,          11.
   2434,          10., 0.0299999993,          11.
   2435,          10.,  0.119999997,          9.5
   2436,          10., 0.0900000036,          9.5
   2437,          10., 0.0599999987,          9.5
   2438,          10., 0.0299999993,          9.5
   2439,          10.,  0.119999997,           8.
   2440,          10., 0.0900000036,           8.
   2441,          10., 0.0599999987,           8.
   2442,          10., 0.0299999993,           8.
   2443,          10.,  0.119999997,          6.5
   2444,          10., 0.0900000036,          6.5
   2445,          10., 0.0599999987,          6.5
   2446,          10., 0.0299999993,          6.5
   2447,          7.5,  0.119999997,          11.
   2448,          7.5, 0.0900000036,          11.
   2449,          7.5, 0.0599999987,          11.
   2450,          7.5, 0.0299999993,          11.
   2451,          7.5,  0.119999997,          9.5
   2452,          7.5, 0.0900000036,          9.5
   2453,          7.5, 0.0599999987,          9.5
   2454,          7.5, 0.0299999993,          9.5
   2455,          7.5,  0.119999997,           8.
   2456,          7.5, 0.0900000036,           8.
   2457,          7.5, 0.0599999987,           8.
   2458,          7.5, 0.0299999993,           8.
   2459,          7.5,  0.119999997,          6.5
   2460,          7.5, 0.0900000036,          6.5
   2461,          7.5, 0.0599999987,          6.5
   2462,          7.5, 0.0299999993,          6.5
   2463,           5.,  0.119999997,          11.
   2464,           5., 0.0900000036,          11.
   2465,           5., 0.0599999987,          11.
   2466,           5., 0.0299999993,          11.
   2467,           5.,  0.119999997,          9.5
   2468,           5., 0.0900000036,          9.5
   2469,           5., 0.0599999987,          9.5
   2470,           5., 0.0299999993,          9.5
   2471,           5.,  0.119999997,           8.
   2472,           5., 0.0900000036,           8.
   2473,           5., 0.0599999987,           8.
   2474,           5., 0.0299999993,           8.
   2475,           5.,  0.119999997,          6.5
   2476,           5., 0.0900000036,          6.5
   2477,           5., 0.0599999987,          6.5
   2478,           5., 0.0299999993,          6.5
   2479,          2.5,  0.119999997,          11.
   2480,          2.5, 0.0900000036,          11.
   2481,          2.5, 0.0599999987,          11.
   2482,          2.5, 0.0299999993,          11.
   2483,          2.5,  0.119999997,          9.5
   2484,          2.5, 0.0900000036,          9.5
   2485,          2.5, 0.0599999987,          9.5
   2486,          2.5, 0.0299999993,          9.5
   2487,          2.5,  0.119999997,           8.
   2488,          2.5, 0.0900000036,           8.
   2489,          2.5, 0.0599999987,           8.
   2490,          2.5, 0.0299999993,           8.
   2491,          2.5,  0.119999997,          6.5
   2492,          2.5, 0.0900000036,          6.5
   2493,          2.5, 0.0599999987,          6.5
   2494,          2.5, 0.0299999993,          6.5
   2495,          2.5, 0.0299999993,  0.666666687
   2496,          2.5, 0.0599999987,  0.666666687
   2497,          2.5, 0.0900000036,  0.666666687
   2498,          2.5,  0.119999997,  0.666666687
   2499,          2.5, 0.0299999993,  0.333333343
   2500,          2.5, 0.0599999987,  0.333333343
   2501,          2.5, 0.0900000036,  0.333333343
   2502,          2.5,  0.119999997,  0.333333343
   2503,           5., 0.0299999993,  0.666666687
   2504,           5., 0.0599999987,  0.666666687
   2505,           5., 0.0900000036,  0.666666687
   2506,           5.,  0.119999997,  0.666666687
   2507,           5., 0.0299999993,  0.333333343
   2508,           5., 0.0599999987,  0.333333343
   2509,           5., 0.0900000036,  0.333333343
   2510,           5.,  0.119999997,  0.333333343
   2511,          7.5, 0.0299999993,  0.666666687
   2512,          7.5, 0.0599999987,  0.666666687
   2513,          7.5, 0.0900000036,  0.666666687
   2514,          7.5,  0.119999997,  0.666666687
   2515,          7.5, 0.0299999993,  0.333333343
   2516,          7.5, 0.0599999987,  0.333333343
   2517,          7.5, 0.0900000036,  0.333333343
   2518,          7.5,  0.119999997,  0.333333343
   2519,          10., 0.0299999993,  0.666666687
   2520,          10., 0.0599999987,  0.666666687
   2521,          10., 0.0900000036,  0.666666687
   2522,          10.,  0.119999997,  0.666666687
   2523,          10., 0.0299999993,  0.333333343
   2524,          10., 0.0599999987,  0.333333343
   2525,          10., 0.0900000036,  0.333333343
   2526,          10.,  0.119999997,  0.333333343
   2527,         12.5, 0.0299999993,  0.666666687
   2528,         12.5, 0.0599999987,  0.666666687
   2529,         12.5, 0.0900000036,  0.666666687
   2530,         12.5,  0.119999997,  0.666666687
   2531,         12.5, 0.0299999993,  0.333333343
   2532,         12.5, 0.0599999987,  0.333333343
   2533,         12.5, 0.0900000036,  0.333333343
   2534,         12.5,  0.119999997,  0.333333343
   2535,          15., 0.0299999993,  0.666666687
   2536,          15., 0.0599999987,  0.666666687
   2537,          15., 0.0900000036,  0.666666687
   2538,          15.,  0.119999997,  0.666666687
   2539,          15., 0.0299999993,  0.333333343
   2540,          15., 0.0599999987,  0.333333343
   2541,          15., 0.0900000036,  0.333333343
   2542,          15.,  0.119999997,  0.333333343
   2543,         17.5, 0.0299999993,  0.666666687
   2544,         17.5, 0.0599999987,  0.666666687
   2545,         17.5, 0.0900000036,  0.666666687
   2546,         17.5,  0.119999997,  0.666666687
   2547,         17.5, 0.0299999993,  0.333333343
   2548,         17.5, 0.0599999987,  0.333333343
   2549,         17.5, 0.0900000036,  0.333333343
   2550,         17.5,  0.119999997,  0.333333343
   2551,          20., 0.0299999993,  0.666666687
   2552,          20., 0.0599999987,  0.666666687
   2553,          20., 0.0900000036,  0.666666687
   2554,          20.,  0.119999997,  0.666666687
   2555,          20., 0.0299999993,  0.333333343
   2556,          20., 0.0599999987,  0.333333343
   2557,          20., 0.0900000036,  0.333333343
   2558,          20.,  0.119999997,  0.333333343
   2559,         22.5, 0.0299999993,  0.666666687
   2560,         22.5, 0.0599999987,  0.666666687
   2561,         22.5, 0.0900000036,  0.666666687
   2562,         22.5,  0.119999997,  0.666666687
   2563,         22.5, 0.0299999993,  0.333333343
   2564,         22.5, 0.0599999987,  0.333333343
   2565,         22.5, 0.0900000036,  0.333333343
   2566,         22.5,  0.119999997,  0.333333343
   2567,          25., 0.0299999993,  0.666666687
   2568,          25., 0.0599999987,  0.666666687
   2569,          25., 0.0900000036,  0.666666687
   2570,          25.,  0.119999997,  0.666666687
   2571,          25., 0.0299999993,  0.333333343
   2572,          25., 0.0599999987,  0.333333343
   2573,          25., 0.0900000036,  0.333333343
   2574,          25.,  0.119999997,  0.333333343
   2575,         27.5, 0.0299999993,  0.666666687
   2576,         27.5, 0.0599999987,  0.666666687
   2577,         27.5, 0.0900000036,  0.666666687
   2578,         27.5,  0.119999997,  0.666666687
   2579,         27.5, 0.0299999993,  0.333333343
   2580,         27.5, 0.0599999987,  0.333333343
   2581,         27.5, 0.0900000036,  0.333333343
   2582,         27.5,  0.119999997,  0.333333343
   2583,          30., 0.0299999993,  0.666666687
   2584,          30., 0.0599999987,  0.666666687
   2585,          30., 0.0900000036,  0.666666687
   2586,          30.,  0.119999997,  0.666666687
   2587,          30., 0.0299999993,  0.333333343
   2588,          30., 0.0599999987,  0.333333343
   2589,          30., 0.0900000036,  0.333333343
   2590,          30.,  0.119999997,  0.333333343
   2591,         32.5, 0.0299999993,  0.666666687
   2592,         32.5, 0.0599999987,  0.666666687
   2593,         32.5, 0.0900000036,  0.666666687
   2594,         32.5,  0.119999997,  0.666666687
   2595,         32.5, 0.0299999993,  0.333333343
   2596,         32.5, 0.0599999987,  0.333333343
   2597,         32.5, 0.0900000036,  0.333333343
   2598,         32.5,  0.119999997,  0.333333343
   2599,          35., 0.0299999993,  0.666666687
   2600,          35., 0.0599999987,  0.666666687
   2601,          35., 0.0900000036,  0.666666687
   2602,          35.,  0.119999997,  0.666666687
   2603,          35., 0.0299999993,  0.333333343
   2604,          35., 0.0599999987,  0.333333343
   2605,          35., 0.0900000036,  0.333333343
   2606,          35.,  0.119999997,  0.333333343
   2607,         37.5, 0.0299999993,  0.666666687
   2608,         37.5, 0.0599999987,  0.666666687
   2609,         37.5, 0.0900000036,  0.666666687
   2610,         37.5,  0.119999997,  0.666666687
   2611,         37.5, 0.0299999993,  0.333333343
   2612,         37.5, 0.0599999987,  0.333333343
   2613,         37.5, 0.0900000036,  0.333333343
   2614,         37.5,  0.119999997,  0.333333343
   2615,          40., 0.0299999993,  0.666666687
   2616,          40., 0.0599999987,  0.666666687
   2617,          40., 0.0900000036,  0.666666687
   2618,          40.,  0.119999997,  0.666666687
   2619,          40., 0.0299999993,  0.333333343
   2620,          40., 0.0599999987,  0.333333343
   2621,          40., 0.0900000036,  0.333333343
   2622,          40.,  0.119999997,  0.333333343
   2623,         42.5, 0.0299999993,  0.666666687
   2624,         42.5, 0.0599999987,  0.666666687
   2625,         42.5, 0.0900000036,  0.666666687
   2626,         42.5,  0.119999997,  0.666666687
   2627,         42.5, 0.0299999993,  0.333333343
   2628,         42.5, 0.0599999987,  0.333333343
   2629,         42.5, 0.0900000036,  0.333333343
   2630,         42.5,  0.119999997,  0.333333343
   2631,          45., 0.0299999993,  0.666666687
   2632,          45., 0.0599999987,  0.666666687
   2633,          45., 0.0900000036,  0.666666687
   2634,          45.,  0.119999997,  0.666666687
   2635,          45., 0.0299999993,  0.333333343
   2636,          45., 0.0599999987,  0.333333343
   2637,          45., 0.0900000036,  0.333333343
   2638,          45.,  0.119999997,  0.333333343
   2639,         47.5, 0.0299999993,  0.666666687
   2640,         47.5, 0.0599999987,  0.666666687
   2641,         47.5, 0.0900000036,  0.666666687
   2642,         47.5,  0.119999997,  0.666666687
   2643,         47.5, 0.0299999993,  0.333333343
   2644,         47.5, 0.0599999987,  0.333333343
   2645,         47.5, 0.0900000036,  0.333333343
   2646,         47.5,  0.119999997,  0.333333343
*Element, type=C3D8R
  1,   90,  499, 1431,  347,    1,   21,  315,   36
  2,  499,  500, 1432, 1431,   21,   22,  316,  315
  3,  500,  501, 1433, 1432,   22,   23,  317,  316
  4,  501,  502, 1434, 1433,   23,   24,  318,  317
  5,  502,  110,  423, 1434,   24,    2,   25,  318
  6,  347, 1431, 1435,  348,   36,  315,  319,   35
  7, 1431, 1432, 1436, 1435,  315,  316,  320,  319
  8, 1432, 1433, 1437, 1436,  316,  317,  321,  320
  9, 1433, 1434, 1438, 1437,  317,  318,  322,  321
 10, 1434,  423,  424, 1438,  318,   25,   26,  322
 11,  348, 1435, 1439,  349,   35,  319,  323,   34
 12, 1435, 1436, 1440, 1439,  319,  320,  324,  323
 13, 1436, 1437, 1441, 1440,  320,  321,  325,  324
 14, 1437, 1438, 1442, 1441,  321,  322,  326,  325
 15, 1438,  424,  425, 1442,  322,   26,   27,  326
 16,  349, 1439, 1443,  350,   34,  323,  327,   33
 17, 1439, 1440, 1444, 1443,  323,  324,  328,  327
 18, 1440, 1441, 1445, 1444,  324,  325,  329,  328
 19, 1441, 1442, 1446, 1445,  325,  326,  330,  329
 20, 1442,  425,  426, 1446,  326,   27,   28,  330
 21,  350, 1443,  575,   53,   33,  327,   32,    4
 22, 1443, 1444,  576,  575,  327,  328,   31,   32
 23, 1444, 1445,  577,  576,  328,  329,   30,   31
 24, 1445, 1446,  578,  577,  329,  330,   29,   30
 25, 1446,  426,  109,  578,  330,   28,    3,   29
 26,   89,  503, 1447,  351,   90,  499, 1431,  347
 27,  503,  504, 1448, 1447,  499,  500, 1432, 1431
 28,  504,  505, 1449, 1448,  500,  501, 1433, 1432
 29,  505,  506, 1450, 1449,  501,  502, 1434, 1433
 30,  506,  111,  427, 1450,  502,  110,  423, 1434
 31,  351, 1447, 1451,  352,  347, 1431, 1435,  348
 32, 1447, 1448, 1452, 1451, 1431, 1432, 1436, 1435
 33, 1448, 1449, 1453, 1452, 1432, 1433, 1437, 1436
 34, 1449, 1450, 1454, 1453, 1433, 1434, 1438, 1437
 35, 1450,  427,  428, 1454, 1434,  423,  424, 1438
 36,  352, 1451, 1455,  353,  348, 1435, 1439,  349
 37, 1451, 1452, 1456, 1455, 1435, 1436, 1440, 1439
 38, 1452, 1453, 1457, 1456, 1436, 1437, 1441, 1440
 39, 1453, 1454, 1458, 1457, 1437, 1438, 1442, 1441
 40, 1454,  428,  429, 1458, 1438,  424,  425, 1442
 41,  353, 1455, 1459,  354,  349, 1439, 1443,  350
 42, 1455, 1456, 1460, 1459, 1439, 1440, 1444, 1443
 43, 1456, 1457, 1461, 1460, 1440, 1441, 1445, 1444
 44, 1457, 1458, 1462, 1461, 1441, 1442, 1446, 1445
 45, 1458,  429,  430, 1462, 1442,  425,  426, 1446
 46,  354, 1459,  579,   54,  350, 1443,  575,   53
 47, 1459, 1460,  580,  579, 1443, 1444,  576,  575
 48, 1460, 1461,  581,  580, 1444, 1445,  577,  576
 49, 1461, 1462,  582,  581, 1445, 1446,  578,  577
 50, 1462,  430,  108,  582, 1446,  426,  109,  578
 51,   88,  507, 1463,  355,   89,  503, 1447,  351
 52,  507,  508, 1464, 1463,  503,  504, 1448, 1447
 53,  508,  509, 1465, 1464,  504,  505, 1449, 1448
 54,  509,  510, 1466, 1465,  505,  506, 1450, 1449
 55,  510,  112,  431, 1466,  506,  111,  427, 1450
 56,  355, 1463, 1467,  356,  351, 1447, 1451,  352
 57, 1463, 1464, 1468, 1467, 1447, 1448, 1452, 1451
 58, 1464, 1465, 1469, 1468, 1448, 1449, 1453, 1452
 59, 1465, 1466, 1470, 1469, 1449, 1450, 1454, 1453
 60, 1466,  431,  432, 1470, 1450,  427,  428, 1454
 61,  356, 1467, 1471,  357,  352, 1451, 1455,  353
 62, 1467, 1468, 1472, 1471, 1451, 1452, 1456, 1455
 63, 1468, 1469, 1473, 1472, 1452, 1453, 1457, 1456
 64, 1469, 1470, 1474, 1473, 1453, 1454, 1458, 1457
 65, 1470,  432,  433, 1474, 1454,  428,  429, 1458
 66,  357, 1471, 1475,  358,  353, 1455, 1459,  354
 67, 1471, 1472, 1476, 1475, 1455, 1456, 1460, 1459
 68, 1472, 1473, 1477, 1476, 1456, 1457, 1461, 1460
 69, 1473, 1474, 1478, 1477, 1457, 1458, 1462, 1461
 70, 1474,  433,  434, 1478, 1458,  429,  430, 1462
 71,  358, 1475,  583,   55,  354, 1459,  579,   54
 72, 1475, 1476,  584,  583, 1459, 1460,  580,  579
 73, 1476, 1477,  585,  584, 1460, 1461,  581,  580
 74, 1477, 1478,  586,  585, 1461, 1462,  582,  581
 75, 1478,  434,  107,  586, 1462,  430,  108,  582
 76,   87,  511, 1479,  359,   88,  507, 1463,  355
 77,  511,  512, 1480, 1479,  507,  508, 1464, 1463
 78,  512,  513, 1481, 1480,  508,  509, 1465, 1464
 79,  513,  514, 1482, 1481,  509,  510, 1466, 1465
 80,  514,  113,  435, 1482,  510,  112,  431, 1466
 81,  359, 1479, 1483,  360,  355, 1463, 1467,  356
 82, 1479, 1480, 1484, 1483, 1463, 1464, 1468, 1467
 83, 1480, 1481, 1485, 1484, 1464, 1465, 1469, 1468
 84, 1481, 1482, 1486, 1485, 1465, 1466, 1470, 1469
 85, 1482,  435,  436, 1486, 1466,  431,  432, 1470
 86,  360, 1483, 1487,  361,  356, 1467, 1471,  357
 87, 1483, 1484, 1488, 1487, 1467, 1468, 1472, 1471
 88, 1484, 1485, 1489, 1488, 1468, 1469, 1473, 1472
 89, 1485, 1486, 1490, 1489, 1469, 1470, 1474, 1473
 90, 1486,  436,  437, 1490, 1470,  432,  433, 1474
 91,  361, 1487, 1491,  362,  357, 1471, 1475,  358
 92, 1487, 1488, 1492, 1491, 1471, 1472, 1476, 1475
 93, 1488, 1489, 1493, 1492, 1472, 1473, 1477, 1476
 94, 1489, 1490, 1494, 1493, 1473, 1474, 1478, 1477
 95, 1490,  437,  438, 1494, 1474,  433,  434, 1478
 96,  362, 1491,  587,   56,  358, 1475,  583,   55
 97, 1491, 1492,  588,  587, 1475, 1476,  584,  583
 98, 1492, 1493,  589,  588, 1476, 1477,  585,  584
 99, 1493, 1494,  590,  589, 1477, 1478,  586,  585
100, 1494,  438,  106,  590, 1478,  434,  107,  586
101,   86,  515, 1495,  363,   87,  511, 1479,  359
102,  515,  516, 1496, 1495,  511,  512, 1480, 1479
103,  516,  517, 1497, 1496,  512,  513, 1481, 1480
104,  517,  518, 1498, 1497,  513,  514, 1482, 1481
105,  518,  114,  439, 1498,  514,  113,  435, 1482
106,  363, 1495, 1499,  364,  359, 1479, 1483,  360
107, 1495, 1496, 1500, 1499, 1479, 1480, 1484, 1483
108, 1496, 1497, 1501, 1500, 1480, 1481, 1485, 1484
109, 1497, 1498, 1502, 1501, 1481, 1482, 1486, 1485
110, 1498,  439,  440, 1502, 1482,  435,  436, 1486
111,  364, 1499, 1503,  365,  360, 1483, 1487,  361
112, 1499, 1500, 1504, 1503, 1483, 1484, 1488, 1487
113, 1500, 1501, 1505, 1504, 1484, 1485, 1489, 1488
114, 1501, 1502, 1506, 1505, 1485, 1486, 1490, 1489
115, 1502,  440,  441, 1506, 1486,  436,  437, 1490
116,  365, 1503, 1507,  366,  361, 1487, 1491,  362
117, 1503, 1504, 1508, 1507, 1487, 1488, 1492, 1491
118, 1504, 1505, 1509, 1508, 1488, 1489, 1493, 1492
119, 1505, 1506, 1510, 1509, 1489, 1490, 1494, 1493
120, 1506,  441,  442, 1510, 1490,  437,  438, 1494
121,  366, 1507,  591,   57,  362, 1491,  587,   56
122, 1507, 1508,  592,  591, 1491, 1492,  588,  587
123, 1508, 1509,  593,  592, 1492, 1493,  589,  588
124, 1509, 1510,  594,  593, 1493, 1494,  590,  589
125, 1510,  442,  105,  594, 1494,  438,  106,  590
126,   85,  519, 1511,  367,   86,  515, 1495,  363
127,  519,  520, 1512, 1511,  515,  516, 1496, 1495
128,  520,  521, 1513, 1512,  516,  517, 1497, 1496
129,  521,  522, 1514, 1513,  517,  518, 1498, 1497
130,  522,  115,  443, 1514,  518,  114,  439, 1498
131,  367, 1511, 1515,  368,  363, 1495, 1499,  364
132, 1511, 1512, 1516, 1515, 1495, 1496, 1500, 1499
133, 1512, 1513, 1517, 1516, 1496, 1497, 1501, 1500
134, 1513, 1514, 1518, 1517, 1497, 1498, 1502, 1501
135, 1514,  443,  444, 1518, 1498,  439,  440, 1502
136,  368, 1515, 1519,  369,  364, 1499, 1503,  365
137, 1515, 1516, 1520, 1519, 1499, 1500, 1504, 1503
138, 1516, 1517, 1521, 1520, 1500, 1501, 1505, 1504
139, 1517, 1518, 1522, 1521, 1501, 1502, 1506, 1505
140, 1518,  444,  445, 1522, 1502,  440,  441, 1506
141,  369, 1519, 1523,  370,  365, 1503, 1507,  366
142, 1519, 1520, 1524, 1523, 1503, 1504, 1508, 1507
143, 1520, 1521, 1525, 1524, 1504, 1505, 1509, 1508
144, 1521, 1522, 1526, 1525, 1505, 1506, 1510, 1509
145, 1522,  445,  446, 1526, 1506,  441,  442, 1510
146,  370, 1523,  595,   58,  366, 1507,  591,   57
147, 1523, 1524,  596,  595, 1507, 1508,  592,  591
148, 1524, 1525,  597,  596, 1508, 1509,  593,  592
149, 1525, 1526,  598,  597, 1509, 1510,  594,  593
150, 1526,  446,  104,  598, 1510,  442,  105,  594
151,   84,  523, 1527,  371,   85,  519, 1511,  367
152,  523,  524, 1528, 1527,  519,  520, 1512, 1511
153,  524,  525, 1529, 1528,  520,  521, 1513, 1512
154,  525,  526, 1530, 1529,  521,  522, 1514, 1513
155,  526,  116,  447, 1530,  522,  115,  443, 1514
156,  371, 1527, 1531,  372,  367, 1511, 1515,  368
157, 1527, 1528, 1532, 1531, 1511, 1512, 1516, 1515
158, 1528, 1529, 1533, 1532, 1512, 1513, 1517, 1516
159, 1529, 1530, 1534, 1533, 1513, 1514, 1518, 1517
160, 1530,  447,  448, 1534, 1514,  443,  444, 1518
161,  372, 1531, 1535,  373,  368, 1515, 1519,  369
162, 1531, 1532, 1536, 1535, 1515, 1516, 1520, 1519
163, 1532, 1533, 1537, 1536, 1516, 1517, 1521, 1520
164, 1533, 1534, 1538, 1537, 1517, 1518, 1522, 1521
165, 1534,  448,  449, 1538, 1518,  444,  445, 1522
166,  373, 1535, 1539,  374,  369, 1519, 1523,  370
167, 1535, 1536, 1540, 1539, 1519, 1520, 1524, 1523
168, 1536, 1537, 1541, 1540, 1520, 1521, 1525, 1524
169, 1537, 1538, 1542, 1541, 1521, 1522, 1526, 1525
170, 1538,  449,  450, 1542, 1522,  445,  446, 1526
171,  374, 1539,  599,   59,  370, 1523,  595,   58
172, 1539, 1540,  600,  599, 1523, 1524,  596,  595
173, 1540, 1541,  601,  600, 1524, 1525,  597,  596
174, 1541, 1542,  602,  601, 1525, 1526,  598,  597
175, 1542,  450,  103,  602, 1526,  446,  104,  598
176,   83,  527, 1543,  375,   84,  523, 1527,  371
177,  527,  528, 1544, 1543,  523,  524, 1528, 1527
178,  528,  529, 1545, 1544,  524,  525, 1529, 1528
179,  529,  530, 1546, 1545,  525,  526, 1530, 1529
180,  530,  117,  451, 1546,  526,  116,  447, 1530
181,  375, 1543, 1547,  376,  371, 1527, 1531,  372
182, 1543, 1544, 1548, 1547, 1527, 1528, 1532, 1531
183, 1544, 1545, 1549, 1548, 1528, 1529, 1533, 1532
184, 1545, 1546, 1550, 1549, 1529, 1530, 1534, 1533
185, 1546,  451,  452, 1550, 1530,  447,  448, 1534
186,  376, 1547, 1551,  377,  372, 1531, 1535,  373
187, 1547, 1548, 1552, 1551, 1531, 1532, 1536, 1535
188, 1548, 1549, 1553, 1552, 1532, 1533, 1537, 1536
189, 1549, 1550, 1554, 1553, 1533, 1534, 1538, 1537
190, 1550,  452,  453, 1554, 1534,  448,  449, 1538
191,  377, 1551, 1555,  378,  373, 1535, 1539,  374
192, 1551, 1552, 1556, 1555, 1535, 1536, 1540, 1539
193, 1552, 1553, 1557, 1556, 1536, 1537, 1541, 1540
194, 1553, 1554, 1558, 1557, 1537, 1538, 1542, 1541
195, 1554,  453,  454, 1558, 1538,  449,  450, 1542
196,  378, 1555,  603,   60,  374, 1539,  599,   59
197, 1555, 1556,  604,  603, 1539, 1540,  600,  599
198, 1556, 1557,  605,  604, 1540, 1541,  601,  600
199, 1557, 1558,  606,  605, 1541, 1542,  602,  601
200, 1558,  454,  102,  606, 1542,  450,  103,  602
201,   82,  531, 1559,  379,   83,  527, 1543,  375
202,  531,  532, 1560, 1559,  527,  528, 1544, 1543
203,  532,  533, 1561, 1560,  528,  529, 1545, 1544
204,  533,  534, 1562, 1561,  529,  530, 1546, 1545
205,  534,  118,  455, 1562,  530,  117,  451, 1546
206,  379, 1559, 1563,  380,  375, 1543, 1547,  376
207, 1559, 1560, 1564, 1563, 1543, 1544, 1548, 1547
208, 1560, 1561, 1565, 1564, 1544, 1545, 1549, 1548
209, 1561, 1562, 1566, 1565, 1545, 1546, 1550, 1549
210, 1562,  455,  456, 1566, 1546,  451,  452, 1550
211,  380, 1563, 1567,  381,  376, 1547, 1551,  377
212, 1563, 1564, 1568, 1567, 1547, 1548, 1552, 1551
213, 1564, 1565, 1569, 1568, 1548, 1549, 1553, 1552
214, 1565, 1566, 1570, 1569, 1549, 1550, 1554, 1553
215, 1566,  456,  457, 1570, 1550,  452,  453, 1554
216,  381, 1567, 1571,  382,  377, 1551, 1555,  378
217, 1567, 1568, 1572, 1571, 1551, 1552, 1556, 1555
218, 1568, 1569, 1573, 1572, 1552, 1553, 1557, 1556
219, 1569, 1570, 1574, 1573, 1553, 1554, 1558, 1557
220, 1570,  457,  458, 1574, 1554,  453,  454, 1558
221,  382, 1571,  607,   61,  378, 1555,  603,   60
222, 1571, 1572,  608,  607, 1555, 1556,  604,  603
223, 1572, 1573,  609,  608, 1556, 1557,  605,  604
224, 1573, 1574,  610,  609, 1557, 1558,  606,  605
225, 1574,  458,  101,  610, 1558,  454,  102,  606
226,   81,  535, 1575,  383,   82,  531, 1559,  379
227,  535,  536, 1576, 1575,  531,  532, 1560, 1559
228,  536,  537, 1577, 1576,  532,  533, 1561, 1560
229,  537,  538, 1578, 1577,  533,  534, 1562, 1561
230,  538,  119,  459, 1578,  534,  118,  455, 1562
231,  383, 1575, 1579,  384,  379, 1559, 1563,  380
232, 1575, 1576, 1580, 1579, 1559, 1560, 1564, 1563
233, 1576, 1577, 1581, 1580, 1560, 1561, 1565, 1564
234, 1577, 1578, 1582, 1581, 1561, 1562, 1566, 1565
235, 1578,  459,  460, 1582, 1562,  455,  456, 1566
236,  384, 1579, 1583,  385,  380, 1563, 1567,  381
237, 1579, 1580, 1584, 1583, 1563, 1564, 1568, 1567
238, 1580, 1581, 1585, 1584, 1564, 1565, 1569, 1568
239, 1581, 1582, 1586, 1585, 1565, 1566, 1570, 1569
240, 1582,  460,  461, 1586, 1566,  456,  457, 1570
241,  385, 1583, 1587,  386,  381, 1567, 1571,  382
242, 1583, 1584, 1588, 1587, 1567, 1568, 1572, 1571
243, 1584, 1585, 1589, 1588, 1568, 1569, 1573, 1572
244, 1585, 1586, 1590, 1589, 1569, 1570, 1574, 1573
245, 1586,  461,  462, 1590, 1570,  457,  458, 1574
246,  386, 1587,  611,   62,  382, 1571,  607,   61
247, 1587, 1588,  612,  611, 1571, 1572,  608,  607
248, 1588, 1589,  613,  612, 1572, 1573,  609,  608
249, 1589, 1590,  614,  613, 1573, 1574,  610,  609
250, 1590,  462,  100,  614, 1574,  458,  101,  610
251,   80,  539, 1591,  387,   81,  535, 1575,  383
252,  539,  540, 1592, 1591,  535,  536, 1576, 1575
253,  540,  541, 1593, 1592,  536,  537, 1577, 1576
254,  541,  542, 1594, 1593,  537,  538, 1578, 1577
255,  542,  120,  463, 1594,  538,  119,  459, 1578
256,  387, 1591, 1595,  388,  383, 1575, 1579,  384
257, 1591, 1592, 1596, 1595, 1575, 1576, 1580, 1579
258, 1592, 1593, 1597, 1596, 1576, 1577, 1581, 1580
259, 1593, 1594, 1598, 1597, 1577, 1578, 1582, 1581
260, 1594,  463,  464, 1598, 1578,  459,  460, 1582
261,  388, 1595, 1599,  389,  384, 1579, 1583,  385
262, 1595, 1596, 1600, 1599, 1579, 1580, 1584, 1583
263, 1596, 1597, 1601, 1600, 1580, 1581, 1585, 1584
264, 1597, 1598, 1602, 1601, 1581, 1582, 1586, 1585
265, 1598,  464,  465, 1602, 1582,  460,  461, 1586
266,  389, 1599, 1603,  390,  385, 1583, 1587,  386
267, 1599, 1600, 1604, 1603, 1583, 1584, 1588, 1587
268, 1600, 1601, 1605, 1604, 1584, 1585, 1589, 1588
269, 1601, 1602, 1606, 1605, 1585, 1586, 1590, 1589
270, 1602,  465,  466, 1606, 1586,  461,  462, 1590
271,  390, 1603,  615,   63,  386, 1587,  611,   62
272, 1603, 1604,  616,  615, 1587, 1588,  612,  611
273, 1604, 1605,  617,  616, 1588, 1589,  613,  612
274, 1605, 1606,  618,  617, 1589, 1590,  614,  613
275, 1606,  466,   99,  618, 1590,  462,  100,  614
276,   79,  543, 1607,  391,   80,  539, 1591,  387
277,  543,  544, 1608, 1607,  539,  540, 1592, 1591
278,  544,  545, 1609, 1608,  540,  541, 1593, 1592
279,  545,  546, 1610, 1609,  541,  542, 1594, 1593
280,  546,  121,  467, 1610,  542,  120,  463, 1594
281,  391, 1607, 1611,  392,  387, 1591, 1595,  388
282, 1607, 1608, 1612, 1611, 1591, 1592, 1596, 1595
283, 1608, 1609, 1613, 1612, 1592, 1593, 1597, 1596
284, 1609, 1610, 1614, 1613, 1593, 1594, 1598, 1597
285, 1610,  467,  468, 1614, 1594,  463,  464, 1598
286,  392, 1611, 1615,  393,  388, 1595, 1599,  389
287, 1611, 1612, 1616, 1615, 1595, 1596, 1600, 1599
288, 1612, 1613, 1617, 1616, 1596, 1597, 1601, 1600
289, 1613, 1614, 1618, 1617, 1597, 1598, 1602, 1601
290, 1614,  468,  469, 1618, 1598,  464,  465, 1602
291,  393, 1615, 1619,  394,  389, 1599, 1603,  390
292, 1615, 1616, 1620, 1619, 1599, 1600, 1604, 1603
293, 1616, 1617, 1621, 1620, 1600, 1601, 1605, 1604
294, 1617, 1618, 1622, 1621, 1601, 1602, 1606, 1605
295, 1618,  469,  470, 1622, 1602,  465,  466, 1606
296,  394, 1619,  619,   64,  390, 1603,  615,   63
297, 1619, 1620,  620,  619, 1603, 1604,  616,  615
298, 1620, 1621,  621,  620, 1604, 1605,  617,  616
299, 1621, 1622,  622,  621, 1605, 1606,  618,  617
300, 1622,  470,   98,  622, 1606,  466,   99,  618
301,   78,  547, 1623,  395,   79,  543, 1607,  391
302,  547,  548, 1624, 1623,  543,  544, 1608, 1607
303,  548,  549, 1625, 1624,  544,  545, 1609, 1608
304,  549,  550, 1626, 1625,  545,  546, 1610, 1609
305,  550,  122,  471, 1626,  546,  121,  467, 1610
306,  395, 1623, 1627,  396,  391, 1607, 1611,  392
307, 1623, 1624, 1628, 1627, 1607, 1608, 1612, 1611
308, 1624, 1625, 1629, 1628, 1608, 1609, 1613, 1612
309, 1625, 1626, 1630, 1629, 1609, 1610, 1614, 1613
310, 1626,  471,  472, 1630, 1610,  467,  468, 1614
311,  396, 1627, 1631,  397,  392, 1611, 1615,  393
312, 1627, 1628, 1632, 1631, 1611, 1612, 1616, 1615
313, 1628, 1629, 1633, 1632, 1612, 1613, 1617, 1616
314, 1629, 1630, 1634, 1633, 1613, 1614, 1618, 1617
315, 1630,  472,  473, 1634, 1614,  468,  469, 1618
316,  397, 1631, 1635,  398,  393, 1615, 1619,  394
317, 1631, 1632, 1636, 1635, 1615, 1616, 1620, 1619
318, 1632, 1633, 1637, 1636, 1616, 1617, 1621, 1620
319, 1633, 1634, 1638, 1637, 1617, 1618, 1622, 1621
320, 1634,  473,  474, 1638, 1618,  469,  470, 1622
321,  398, 1635,  623,   65,  394, 1619,  619,   64
322, 1635, 1636,  624,  623, 1619, 1620,  620,  619
323, 1636, 1637,  625,  624, 1620, 1621,  621,  620
324, 1637, 1638,  626,  625, 1621, 1622,  622,  621
325, 1638,  474,   97,  626, 1622,  470,   98,  622
326,   77,  551, 1639,  399,   78,  547, 1623,  395
327,  551,  552, 1640, 1639,  547,  548, 1624, 1623
328,  552,  553, 1641, 1640,  548,  549, 1625, 1624
329,  553,  554, 1642, 1641,  549,  550, 1626, 1625
330,  554,  123,  475, 1642,  550,  122,  471, 1626
331,  399, 1639, 1643,  400,  395, 1623, 1627,  396
332, 1639, 1640, 1644, 1643, 1623, 1624, 1628, 1627
333, 1640, 1641, 1645, 1644, 1624, 1625, 1629, 1628
334, 1641, 1642, 1646, 1645, 1625, 1626, 1630, 1629
335, 1642,  475,  476, 1646, 1626,  471,  472, 1630
336,  400, 1643, 1647,  401,  396, 1627, 1631,  397
337, 1643, 1644, 1648, 1647, 1627, 1628, 1632, 1631
338, 1644, 1645, 1649, 1648, 1628, 1629, 1633, 1632
339, 1645, 1646, 1650, 1649, 1629, 1630, 1634, 1633
340, 1646,  476,  477, 1650, 1630,  472,  473, 1634
341,  401, 1647, 1651,  402,  397, 1631, 1635,  398
342, 1647, 1648, 1652, 1651, 1631, 1632, 1636, 1635
343, 1648, 1649, 1653, 1652, 1632, 1633, 1637, 1636
344, 1649, 1650, 1654, 1653, 1633, 1634, 1638, 1637
345, 1650,  477,  478, 1654, 1634,  473,  474, 1638
346,  402, 1651,  627,   66,  398, 1635,  623,   65
347, 1651, 1652,  628,  627, 1635, 1636,  624,  623
348, 1652, 1653,  629,  628, 1636, 1637,  625,  624
349, 1653, 1654,  630,  629, 1637, 1638,  626,  625
350, 1654,  478,   96,  630, 1638,  474,   97,  626
351,   76,  555, 1655,  403,   77,  551, 1639,  399
352,  555,  556, 1656, 1655,  551,  552, 1640, 1639
353,  556,  557, 1657, 1656,  552,  553, 1641, 1640
354,  557,  558, 1658, 1657,  553,  554, 1642, 1641
355,  558,  124,  479, 1658,  554,  123,  475, 1642
356,  403, 1655, 1659,  404,  399, 1639, 1643,  400
357, 1655, 1656, 1660, 1659, 1639, 1640, 1644, 1643
358, 1656, 1657, 1661, 1660, 1640, 1641, 1645, 1644
359, 1657, 1658, 1662, 1661, 1641, 1642, 1646, 1645
360, 1658,  479,  480, 1662, 1642,  475,  476, 1646
361,  404, 1659, 1663,  405,  400, 1643, 1647,  401
362, 1659, 1660, 1664, 1663, 1643, 1644, 1648, 1647
363, 1660, 1661, 1665, 1664, 1644, 1645, 1649, 1648
364, 1661, 1662, 1666, 1665, 1645, 1646, 1650, 1649
365, 1662,  480,  481, 1666, 1646,  476,  477, 1650
366,  405, 1663, 1667,  406,  401, 1647, 1651,  402
367, 1663, 1664, 1668, 1667, 1647, 1648, 1652, 1651
368, 1664, 1665, 1669, 1668, 1648, 1649, 1653, 1652
369, 1665, 1666, 1670, 1669, 1649, 1650, 1654, 1653
370, 1666,  481,  482, 1670, 1650,  477,  478, 1654
371,  406, 1667,  631,   67,  402, 1651,  627,   66
372, 1667, 1668,  632,  631, 1651, 1652,  628,  627
373, 1668, 1669,  633,  632, 1652, 1653,  629,  628
374, 1669, 1670,  634,  633, 1653, 1654,  630,  629
375, 1670,  482,   95,  634, 1654,  478,   96,  630
376,   75,  559, 1671,  407,   76,  555, 1655,  403
377,  559,  560, 1672, 1671,  555,  556, 1656, 1655
378,  560,  561, 1673, 1672,  556,  557, 1657, 1656
379,  561,  562, 1674, 1673,  557,  558, 1658, 1657
380,  562,  125,  483, 1674,  558,  124,  479, 1658
381,  407, 1671, 1675,  408,  403, 1655, 1659,  404
382, 1671, 1672, 1676, 1675, 1655, 1656, 1660, 1659
383, 1672, 1673, 1677, 1676, 1656, 1657, 1661, 1660
384, 1673, 1674, 1678, 1677, 1657, 1658, 1662, 1661
385, 1674,  483,  484, 1678, 1658,  479,  480, 1662
386,  408, 1675, 1679,  409,  404, 1659, 1663,  405
387, 1675, 1676, 1680, 1679, 1659, 1660, 1664, 1663
388, 1676, 1677, 1681, 1680, 1660, 1661, 1665, 1664
389, 1677, 1678, 1682, 1681, 1661, 1662, 1666, 1665
390, 1678,  484,  485, 1682, 1662,  480,  481, 1666
391,  409, 1679, 1683,  410,  405, 1663, 1667,  406
392, 1679, 1680, 1684, 1683, 1663, 1664, 1668, 1667
393, 1680, 1681, 1685, 1684, 1664, 1665, 1669, 1668
394, 1681, 1682, 1686, 1685, 1665, 1666, 1670, 1669
395, 1682,  485,  486, 1686, 1666,  481,  482, 1670
396,  410, 1683,  635,   68,  406, 1667,  631,   67
397, 1683, 1684,  636,  635, 1667, 1668,  632,  631
398, 1684, 1685,  637,  636, 1668, 1669,  633,  632
399, 1685, 1686,  638,  637, 1669, 1670,  634,  633
400, 1686,  486,   94,  638, 1670,  482,   95,  634
401,   74,  563, 1687,  411,   75,  559, 1671,  407
402,  563,  564, 1688, 1687,  559,  560, 1672, 1671
403,  564,  565, 1689, 1688,  560,  561, 1673, 1672
404,  565,  566, 1690, 1689,  561,  562, 1674, 1673
405,  566,  126,  487, 1690,  562,  125,  483, 1674
406,  411, 1687, 1691,  412,  407, 1671, 1675,  408
407, 1687, 1688, 1692, 1691, 1671, 1672, 1676, 1675
408, 1688, 1689, 1693, 1692, 1672, 1673, 1677, 1676
409, 1689, 1690, 1694, 1693, 1673, 1674, 1678, 1677
410, 1690,  487,  488, 1694, 1674,  483,  484, 1678
411,  412, 1691, 1695,  413,  408, 1675, 1679,  409
412, 1691, 1692, 1696, 1695, 1675, 1676, 1680, 1679
413, 1692, 1693, 1697, 1696, 1676, 1677, 1681, 1680
414, 1693, 1694, 1698, 1697, 1677, 1678, 1682, 1681
415, 1694,  488,  489, 1698, 1678,  484,  485, 1682
416,  413, 1695, 1699,  414,  409, 1679, 1683,  410
417, 1695, 1696, 1700, 1699, 1679, 1680, 1684, 1683
418, 1696, 1697, 1701, 1700, 1680, 1681, 1685, 1684
419, 1697, 1698, 1702, 1701, 1681, 1682, 1686, 1685
420, 1698,  489,  490, 1702, 1682,  485,  486, 1686
421,  414, 1699,  639,   69,  410, 1683,  635,   68
422, 1699, 1700,  640,  639, 1683, 1684,  636,  635
423, 1700, 1701,  641,  640, 1684, 1685,  637,  636
424, 1701, 1702,  642,  641, 1685, 1686,  638,  637
425, 1702,  490,   93,  642, 1686,  486,   94,  638
426,   73,  567, 1703,  415,   74,  563, 1687,  411
427,  567,  568, 1704, 1703,  563,  564, 1688, 1687
428,  568,  569, 1705, 1704,  564,  565, 1689, 1688
429,  569,  570, 1706, 1705,  565,  566, 1690, 1689
430,  570,  127,  491, 1706,  566,  126,  487, 1690
431,  415, 1703, 1707,  416,  411, 1687, 1691,  412
432, 1703, 1704, 1708, 1707, 1687, 1688, 1692, 1691
433, 1704, 1705, 1709, 1708, 1688, 1689, 1693, 1692
434, 1705, 1706, 1710, 1709, 1689, 1690, 1694, 1693
435, 1706,  491,  492, 1710, 1690,  487,  488, 1694
436,  416, 1707, 1711,  417,  412, 1691, 1695,  413
437, 1707, 1708, 1712, 1711, 1691, 1692, 1696, 1695
438, 1708, 1709, 1713, 1712, 1692, 1693, 1697, 1696
439, 1709, 1710, 1714, 1713, 1693, 1694, 1698, 1697
440, 1710,  492,  493, 1714, 1694,  488,  489, 1698
441,  417, 1711, 1715,  418,  413, 1695, 1699,  414
442, 1711, 1712, 1716, 1715, 1695, 1696, 1700, 1699
443, 1712, 1713, 1717, 1716, 1696, 1697, 1701, 1700
444, 1713, 1714, 1718, 1717, 1697, 1698, 1702, 1701
445, 1714,  493,  494, 1718, 1698,  489,  490, 1702
446,  418, 1715,  643,   70,  414, 1699,  639,   69
447, 1715, 1716,  644,  643, 1699, 1700,  640,  639
448, 1716, 1717,  645,  644, 1700, 1701,  641,  640
449, 1717, 1718,  646,  645, 1701, 1702,  642,  641
450, 1718,  494,   92,  646, 1702,  490,   93,  642
451,   72,  571, 1719,  419,   73,  567, 1703,  415
452,  571,  572, 1720, 1719,  567,  568, 1704, 1703
453,  572,  573, 1721, 1720,  568,  569, 1705, 1704
454,  573,  574, 1722, 1721,  569,  570, 1706, 1705
455,  574,  128,  495, 1722,  570,  127,  491, 1706
456,  419, 1719, 1723,  420,  415, 1703, 1707,  416
457, 1719, 1720, 1724, 1723, 1703, 1704, 1708, 1707
458, 1720, 1721, 1725, 1724, 1704, 1705, 1709, 1708
459, 1721, 1722, 1726, 1725, 1705, 1706, 1710, 1709
460, 1722,  495,  496, 1726, 1706,  491,  492, 1710
461,  420, 1723, 1727,  421,  416, 1707, 1711,  417
462, 1723, 1724, 1728, 1727, 1707, 1708, 1712, 1711
463, 1724, 1725, 1729, 1728, 1708, 1709, 1713, 1712
464, 1725, 1726, 1730, 1729, 1709, 1710, 1714, 1713
465, 1726,  496,  497, 1730, 1710,  492,  493, 1714
466,  421, 1727, 1731,  422,  417, 1711, 1715,  418
467, 1727, 1728, 1732, 1731, 1711, 1712, 1716, 1715
468, 1728, 1729, 1733, 1732, 1712, 1713, 1717, 1716
469, 1729, 1730, 1734, 1733, 1713, 1714, 1718, 1717
470, 1730,  497,  498, 1734, 1714,  493,  494, 1718
471,  422, 1731,  647,   71,  418, 1715,  643,   70
472, 1731, 1732,  648,  647, 1715, 1716,  644,  643
473, 1732, 1733,  649,  648, 1716, 1717,  645,  644
474, 1733, 1734,  650,  649, 1717, 1718,  646,  645
475, 1734,  498,   91,  650, 1718,  494,   92,  646
476,    8,   40,  331,   49,   72,  571, 1719,  419
477,   40,   39,  332,  331,  571,  572, 1720, 1719
478,   39,   38,  333,  332,  572,  573, 1721, 1720
479,   38,   37,  334,  333,  573,  574, 1722, 1721
480,   37,    5,   44,  334,  574,  128,  495, 1722
481,   49,  331,  335,   50,  419, 1719, 1723,  420
482,  331,  332,  336,  335, 1719, 1720, 1724, 1723
483,  332,  333,  337,  336, 1720, 1721, 1725, 1724
484,  333,  334,  338,  337, 1721, 1722, 1726, 1725
485,  334,   44,   43,  338, 1722,  495,  496, 1726
486,   50,  335,  339,   51,  420, 1723, 1727,  421
487,  335,  336,  340,  339, 1723, 1724, 1728, 1727
488,  336,  337,  341,  340, 1724, 1725, 1729, 1728
489,  337,  338,  342,  341, 1725, 1726, 1730, 1729
490,  338,   43,   42,  342, 1726,  496,  497, 1730
491,   51,  339,  343,   52,  421, 1727, 1731,  422
492,  339,  340,  344,  343, 1727, 1728, 1732, 1731
493,  340,  341,  345,  344, 1728, 1729, 1733, 1732
494,  341,  342,  346,  345, 1729, 1730, 1734, 1733
495,  342,   42,   41,  346, 1730,  497,  498, 1734
496,   52,  343,   45,    7,  422, 1731,  647,   71
497,  343,  344,   46,   45, 1731, 1732,  648,  647
498,  344,  345,   47,   46, 1732, 1733,  649,  648
499,  345,  346,   48,   47, 1733, 1734,  650,  649
500,  346,   41,    6,   48, 1734,  498,   91,  650
 501,  206,  927, 1735,  699,    9,  129,  651,  148
 502,  927,  928, 1736, 1735,  129,  130,  652,  651
 503,  928,  929, 1737, 1736,  130,  131,  653,  652
 504,  929,  930, 1738, 1737,  131,  132,  654,  653
 505,  930,  226,  813, 1738,  132,   10,  133,  654
 506,  699, 1735, 1739,  700,  148,  651,  655,  147
 507, 1735, 1736, 1740, 1739,  651,  652,  656,  655
 508, 1736, 1737, 1741, 1740,  652,  653,  657,  656
 509, 1737, 1738, 1742, 1741,  653,  654,  658,  657
 510, 1738,  813,  814, 1742,  654,  133,  134,  658
 511,  700, 1739, 1743,  701,  147,  655,  659,  146
 512, 1739, 1740, 1744, 1743,  655,  656,  660,  659
 513, 1740, 1741, 1745, 1744,  656,  657,  661,  660
 514, 1741, 1742, 1746, 1745,  657,  658,  662,  661
 515, 1742,  814,  815, 1746,  658,  134,  135,  662
 516,  701, 1743, 1747,  702,  146,  659,  663,  145
 517, 1743, 1744, 1748, 1747,  659,  660,  664,  663
 518, 1744, 1745, 1749, 1748,  660,  661,  665,  664
 519, 1745, 1746, 1750, 1749,  661,  662,  666,  665
 520, 1746,  815,  816, 1750,  662,  135,  136,  666
 521,  702, 1747, 1751,  703,  145,  663,  667,  144
 522, 1747, 1748, 1752, 1751,  663,  664,  668,  667
 523, 1748, 1749, 1753, 1752,  664,  665,  669,  668
 524, 1749, 1750, 1754, 1753,  665,  666,  670,  669
 525, 1750,  816,  817, 1754,  666,  136,  137,  670
 526,  703, 1751, 1755,  704,  144,  667,  671,  143
 527, 1751, 1752, 1756, 1755,  667,  668,  672,  671
 528, 1752, 1753, 1757, 1756,  668,  669,  673,  672
 529, 1753, 1754, 1758, 1757,  669,  670,  674,  673
 530, 1754,  817,  818, 1758,  670,  137,  138,  674
 531,  704, 1755, 1003,  169,  143,  671,  142,   12
 532, 1755, 1756, 1004, 1003,  671,  672,  141,  142
 533, 1756, 1757, 1005, 1004,  672,  673,  140,  141
 534, 1757, 1758, 1006, 1005,  673,  674,  139,  140
 535, 1758,  818,  225, 1006,  674,  138,   11,  139
 536,  205,  931, 1759,  705,  206,  927, 1735,  699
 537,  931,  932, 1760, 1759,  927,  928, 1736, 1735
 538,  932,  933, 1761, 1760,  928,  929, 1737, 1736
 539,  933,  934, 1762, 1761,  929,  930, 1738, 1737
 540,  934,  227,  819, 1762,  930,  226,  813, 1738
 541,  705, 1759, 1763,  706,  699, 1735, 1739,  700
 542, 1759, 1760, 1764, 1763, 1735, 1736, 1740, 1739
 543, 1760, 1761, 1765, 1764, 1736, 1737, 1741, 1740
 544, 1761, 1762, 1766, 1765, 1737, 1738, 1742, 1741
 545, 1762,  819,  820, 1766, 1738,  813,  814, 1742
 546,  706, 1763, 1767,  707,  700, 1739, 1743,  701
 547, 1763, 1764, 1768, 1767, 1739, 1740, 1744, 1743
 548, 1764, 1765, 1769, 1768, 1740, 1741, 1745, 1744
 549, 1765, 1766, 1770, 1769, 1741, 1742, 1746, 1745
 550, 1766,  820,  821, 1770, 1742,  814,  815, 1746
 551,  707, 1767, 1771,  708,  701, 1743, 1747,  702
 552, 1767, 1768, 1772, 1771, 1743, 1744, 1748, 1747
 553, 1768, 1769, 1773, 1772, 1744, 1745, 1749, 1748
 554, 1769, 1770, 1774, 1773, 1745, 1746, 1750, 1749
 555, 1770,  821,  822, 1774, 1746,  815,  816, 1750
 556,  708, 1771, 1775,  709,  702, 1747, 1751,  703
 557, 1771, 1772, 1776, 1775, 1747, 1748, 1752, 1751
 558, 1772, 1773, 1777, 1776, 1748, 1749, 1753, 1752
 559, 1773, 1774, 1778, 1777, 1749, 1750, 1754, 1753
 560, 1774,  822,  823, 1778, 1750,  816,  817, 1754
 561,  709, 1775, 1779,  710,  703, 1751, 1755,  704
 562, 1775, 1776, 1780, 1779, 1751, 1752, 1756, 1755
 563, 1776, 1777, 1781, 1780, 1752, 1753, 1757, 1756
 564, 1777, 1778, 1782, 1781, 1753, 1754, 1758, 1757
 565, 1778,  823,  824, 1782, 1754,  817,  818, 1758
 566,  710, 1779, 1007,  170,  704, 1755, 1003,  169
 567, 1779, 1780, 1008, 1007, 1755, 1756, 1004, 1003
 568, 1780, 1781, 1009, 1008, 1756, 1757, 1005, 1004
 569, 1781, 1782, 1010, 1009, 1757, 1758, 1006, 1005
 570, 1782,  824,  224, 1010, 1758,  818,  225, 1006
 571,  204,  935, 1783,  711,  205,  931, 1759,  705
 572,  935,  936, 1784, 1783,  931,  932, 1760, 1759
 573,  936,  937, 1785, 1784,  932,  933, 1761, 1760
 574,  937,  938, 1786, 1785,  933,  934, 1762, 1761
 575,  938,  228,  825, 1786,  934,  227,  819, 1762
 576,  711, 1783, 1787,  712,  705, 1759, 1763,  706
 577, 1783, 1784, 1788, 1787, 1759, 1760, 1764, 1763
 578, 1784, 1785, 1789, 1788, 1760, 1761, 1765, 1764
 579, 1785, 1786, 1790, 1789, 1761, 1762, 1766, 1765
 580, 1786,  825,  826, 1790, 1762,  819,  820, 1766
 581,  712, 1787, 1791,  713,  706, 1763, 1767,  707
 582, 1787, 1788, 1792, 1791, 1763, 1764, 1768, 1767
 583, 1788, 1789, 1793, 1792, 1764, 1765, 1769, 1768
 584, 1789, 1790, 1794, 1793, 1765, 1766, 1770, 1769
 585, 1790,  826,  827, 1794, 1766,  820,  821, 1770
 586,  713, 1791, 1795,  714,  707, 1767, 1771,  708
 587, 1791, 1792, 1796, 1795, 1767, 1768, 1772, 1771
 588, 1792, 1793, 1797, 1796, 1768, 1769, 1773, 1772
 589, 1793, 1794, 1798, 1797, 1769, 1770, 1774, 1773
 590, 1794,  827,  828, 1798, 1770,  821,  822, 1774
 591,  714, 1795, 1799,  715,  708, 1771, 1775,  709
 592, 1795, 1796, 1800, 1799, 1771, 1772, 1776, 1775
 593, 1796, 1797, 1801, 1800, 1772, 1773, 1777, 1776
 594, 1797, 1798, 1802, 1801, 1773, 1774, 1778, 1777
 595, 1798,  828,  829, 1802, 1774,  822,  823, 1778
 596,  715, 1799, 1803,  716,  709, 1775, 1779,  710
 597, 1799, 1800, 1804, 1803, 1775, 1776, 1780, 1779
 598, 1800, 1801, 1805, 1804, 1776, 1777, 1781, 1780
 599, 1801, 1802, 1806, 1805, 1777, 1778, 1782, 1781
 600, 1802,  829,  830, 1806, 1778,  823,  824, 1782
 601,  716, 1803, 1011,  171,  710, 1779, 1007,  170
 602, 1803, 1804, 1012, 1011, 1779, 1780, 1008, 1007
 603, 1804, 1805, 1013, 1012, 1780, 1781, 1009, 1008
 604, 1805, 1806, 1014, 1013, 1781, 1782, 1010, 1009
 605, 1806,  830,  223, 1014, 1782,  824,  224, 1010
 606,  203,  939, 1807,  717,  204,  935, 1783,  711
 607,  939,  940, 1808, 1807,  935,  936, 1784, 1783
 608,  940,  941, 1809, 1808,  936,  937, 1785, 1784
 609,  941,  942, 1810, 1809,  937,  938, 1786, 1785
 610,  942,  229,  831, 1810,  938,  228,  825, 1786
 611,  717, 1807, 1811,  718,  711, 1783, 1787,  712
 612, 1807, 1808, 1812, 1811, 1783, 1784, 1788, 1787
 613, 1808, 1809, 1813, 1812, 1784, 1785, 1789, 1788
 614, 1809, 1810, 1814, 1813, 1785, 1786, 1790, 1789
 615, 1810,  831,  832, 1814, 1786,  825,  826, 1790
 616,  718, 1811, 1815,  719,  712, 1787, 1791,  713
 617, 1811, 1812, 1816, 1815, 1787, 1788, 1792, 1791
 618, 1812, 1813, 1817, 1816, 1788, 1789, 1793, 1792
 619, 1813, 1814, 1818, 1817, 1789, 1790, 1794, 1793
 620, 1814,  832,  833, 1818, 1790,  826,  827, 1794
 621,  719, 1815, 1819,  720,  713, 1791, 1795,  714
 622, 1815, 1816, 1820, 1819, 1791, 1792, 1796, 1795
 623, 1816, 1817, 1821, 1820, 1792, 1793, 1797, 1796
 624, 1817, 1818, 1822, 1821, 1793, 1794, 1798, 1797
 625, 1818,  833,  834, 1822, 1794,  827,  828, 1798
 626,  720, 1819, 1823,  721,  714, 1795, 1799,  715
 627, 1819, 1820, 1824, 1823, 1795, 1796, 1800, 1799
 628, 1820, 1821, 1825, 1824, 1796, 1797, 1801, 1800
 629, 1821, 1822, 1826, 1825, 1797, 1798, 1802, 1801
 630, 1822,  834,  835, 1826, 1798,  828,  829, 1802
 631,  721, 1823, 1827,  722,  715, 1799, 1803,  716
 632, 1823, 1824, 1828, 1827, 1799, 1800, 1804, 1803
 633, 1824, 1825, 1829, 1828, 1800, 1801, 1805, 1804
 634, 1825, 1826, 1830, 1829, 1801, 1802, 1806, 1805
 635, 1826,  835,  836, 1830, 1802,  829,  830, 1806
 636,  722, 1827, 1015,  172,  716, 1803, 1011,  171
 637, 1827, 1828, 1016, 1015, 1803, 1804, 1012, 1011
 638, 1828, 1829, 1017, 1016, 1804, 1805, 1013, 1012
 639, 1829, 1830, 1018, 1017, 1805, 1806, 1014, 1013
 640, 1830,  836,  222, 1018, 1806,  830,  223, 1014
 641,  202,  943, 1831,  723,  203,  939, 1807,  717
 642,  943,  944, 1832, 1831,  939,  940, 1808, 1807
 643,  944,  945, 1833, 1832,  940,  941, 1809, 1808
 644,  945,  946, 1834, 1833,  941,  942, 1810, 1809
 645,  946,  230,  837, 1834,  942,  229,  831, 1810
 646,  723, 1831, 1835,  724,  717, 1807, 1811,  718
 647, 1831, 1832, 1836, 1835, 1807, 1808, 1812, 1811
 648, 1832, 1833, 1837, 1836, 1808, 1809, 1813, 1812
 649, 1833, 1834, 1838, 1837, 1809, 1810, 1814, 1813
 650, 1834,  837,  838, 1838, 1810,  831,  832, 1814
 651,  724, 1835, 1839,  725,  718, 1811, 1815,  719
 652, 1835, 1836, 1840, 1839, 1811, 1812, 1816, 1815
 653, 1836, 1837, 1841, 1840, 1812, 1813, 1817, 1816
 654, 1837, 1838, 1842, 1841, 1813, 1814, 1818, 1817
 655, 1838,  838,  839, 1842, 1814,  832,  833, 1818
 656,  725, 1839, 1843,  726,  719, 1815, 1819,  720
 657, 1839, 1840, 1844, 1843, 1815, 1816, 1820, 1819
 658, 1840, 1841, 1845, 1844, 1816, 1817, 1821, 1820
 659, 1841, 1842, 1846, 1845, 1817, 1818, 1822, 1821
 660, 1842,  839,  840, 1846, 1818,  833,  834, 1822
 661,  726, 1843, 1847,  727,  720, 1819, 1823,  721
 662, 1843, 1844, 1848, 1847, 1819, 1820, 1824, 1823
 663, 1844, 1845, 1849, 1848, 1820, 1821, 1825, 1824
 664, 1845, 1846, 1850, 1849, 1821, 1822, 1826, 1825
 665, 1846,  840,  841, 1850, 1822,  834,  835, 1826
 666,  727, 1847, 1851,  728,  721, 1823, 1827,  722
 667, 1847, 1848, 1852, 1851, 1823, 1824, 1828, 1827
 668, 1848, 1849, 1853, 1852, 1824, 1825, 1829, 1828
 669, 1849, 1850, 1854, 1853, 1825, 1826, 1830, 1829
 670, 1850,  841,  842, 1854, 1826,  835,  836, 1830
 671,  728, 1851, 1019,  173,  722, 1827, 1015,  172
 672, 1851, 1852, 1020, 1019, 1827, 1828, 1016, 1015
 673, 1852, 1853, 1021, 1020, 1828, 1829, 1017, 1016
 674, 1853, 1854, 1022, 1021, 1829, 1830, 1018, 1017
 675, 1854,  842,  221, 1022, 1830,  836,  222, 1018
 676,  201,  947, 1855,  729,  202,  943, 1831,  723
 677,  947,  948, 1856, 1855,  943,  944, 1832, 1831
 678,  948,  949, 1857, 1856,  944,  945, 1833, 1832
 679,  949,  950, 1858, 1857,  945,  946, 1834, 1833
 680,  950,  231,  843, 1858,  946,  230,  837, 1834
 681,  729, 1855, 1859,  730,  723, 1831, 1835,  724
 682, 1855, 1856, 1860, 1859, 1831, 1832, 1836, 1835
 683, 1856, 1857, 1861, 1860, 1832, 1833, 1837, 1836
 684, 1857, 1858, 1862, 1861, 1833, 1834, 1838, 1837
 685, 1858,  843,  844, 1862, 1834,  837,  838, 1838
 686,  730, 1859, 1863,  731,  724, 1835, 1839,  725
 687, 1859, 1860, 1864, 1863, 1835, 1836, 1840, 1839
 688, 1860, 1861, 1865, 1864, 1836, 1837, 1841, 1840
 689, 1861, 1862, 1866, 1865, 1837, 1838, 1842, 1841
 690, 1862,  844,  845, 1866, 1838,  838,  839, 1842
 691,  731, 1863, 1867,  732,  725, 1839, 1843,  726
 692, 1863, 1864, 1868, 1867, 1839, 1840, 1844, 1843
 693, 1864, 1865, 1869, 1868, 1840, 1841, 1845, 1844
 694, 1865, 1866, 1870, 1869, 1841, 1842, 1846, 1845
 695, 1866,  845,  846, 1870, 1842,  839,  840, 1846
 696,  732, 1867, 1871,  733,  726, 1843, 1847,  727
 697, 1867, 1868, 1872, 1871, 1843, 1844, 1848, 1847
 698, 1868, 1869, 1873, 1872, 1844, 1845, 1849, 1848
 699, 1869, 1870, 1874, 1873, 1845, 1846, 1850, 1849
 700, 1870,  846,  847, 1874, 1846,  840,  841, 1850
 701,  733, 1871, 1875,  734,  727, 1847, 1851,  728
 702, 1871, 1872, 1876, 1875, 1847, 1848, 1852, 1851
 703, 1872, 1873, 1877, 1876, 1848, 1849, 1853, 1852
 704, 1873, 1874, 1878, 1877, 1849, 1850, 1854, 1853
 705, 1874,  847,  848, 1878, 1850,  841,  842, 1854
 706,  734, 1875, 1023,  174,  728, 1851, 1019,  173
 707, 1875, 1876, 1024, 1023, 1851, 1852, 1020, 1019
 708, 1876, 1877, 1025, 1024, 1852, 1853, 1021, 1020
 709, 1877, 1878, 1026, 1025, 1853, 1854, 1022, 1021
 710, 1878,  848,  220, 1026, 1854,  842,  221, 1022
 711,  200,  951, 1879,  735,  201,  947, 1855,  729
 712,  951,  952, 1880, 1879,  947,  948, 1856, 1855
 713,  952,  953, 1881, 1880,  948,  949, 1857, 1856
 714,  953,  954, 1882, 1881,  949,  950, 1858, 1857
 715,  954,  232,  849, 1882,  950,  231,  843, 1858
 716,  735, 1879, 1883,  736,  729, 1855, 1859,  730
 717, 1879, 1880, 1884, 1883, 1855, 1856, 1860, 1859
 718, 1880, 1881, 1885, 1884, 1856, 1857, 1861, 1860
 719, 1881, 1882, 1886, 1885, 1857, 1858, 1862, 1861
 720, 1882,  849,  850, 1886, 1858,  843,  844, 1862
 721,  736, 1883, 1887,  737,  730, 1859, 1863,  731
 722, 1883, 1884, 1888, 1887, 1859, 1860, 1864, 1863
 723, 1884, 1885, 1889, 1888, 1860, 1861, 1865, 1864
 724, 1885, 1886, 1890, 1889, 1861, 1862, 1866, 1865
 725, 1886,  850,  851, 1890, 1862,  844,  845, 1866
 726,  737, 1887, 1891,  738,  731, 1863, 1867,  732
 727, 1887, 1888, 1892, 1891, 1863, 1864, 1868, 1867
 728, 1888, 1889, 1893, 1892, 1864, 1865, 1869, 1868
 729, 1889, 1890, 1894, 1893, 1865, 1866, 1870, 1869
 730, 1890,  851,  852, 1894, 1866,  845,  846, 1870
 731,  738, 1891, 1895,  739,  732, 1867, 1871,  733
 732, 1891, 1892, 1896, 1895, 1867, 1868, 1872, 1871
 733, 1892, 1893, 1897, 1896, 1868, 1869, 1873, 1872
 734, 1893, 1894, 1898, 1897, 1869, 1870, 1874, 1873
 735, 1894,  852,  853, 1898, 1870,  846,  847, 1874
 736,  739, 1895, 1899,  740,  733, 1871, 1875,  734
 737, 1895, 1896, 1900, 1899, 1871, 1872, 1876, 1875
 738, 1896, 1897, 1901, 1900, 1872, 1873, 1877, 1876
 739, 1897, 1898, 1902, 1901, 1873, 1874, 1878, 1877
 740, 1898,  853,  854, 1902, 1874,  847,  848, 1878
 741,  740, 1899, 1027,  175,  734, 1875, 1023,  174
 742, 1899, 1900, 1028, 1027, 1875, 1876, 1024, 1023
 743, 1900, 1901, 1029, 1028, 1876, 1877, 1025, 1024
 744, 1901, 1902, 1030, 1029, 1877, 1878, 1026, 1025
 745, 1902,  854,  219, 1030, 1878,  848,  220, 1026
 746,  199,  955, 1903,  741,  200,  951, 1879,  735
 747,  955,  956, 1904, 1903,  951,  952, 1880, 1879
 748,  956,  957, 1905, 1904,  952,  953, 1881, 1880
 749,  957,  958, 1906, 1905,  953,  954, 1882, 1881
 750,  958,  233,  855, 1906,  954,  232,  849, 1882
 751,  741, 1903, 1907,  742,  735, 1879, 1883,  736
 752, 1903, 1904, 1908, 1907, 1879, 1880, 1884, 1883
 753, 1904, 1905, 1909, 1908, 1880, 1881, 1885, 1884
 754, 1905, 1906, 1910, 1909, 1881, 1882, 1886, 1885
 755, 1906,  855,  856, 1910, 1882,  849,  850, 1886
 756,  742, 1907, 1911,  743,  736, 1883, 1887,  737
 757, 1907, 1908, 1912, 1911, 1883, 1884, 1888, 1887
 758, 1908, 1909, 1913, 1912, 1884, 1885, 1889, 1888
 759, 1909, 1910, 1914, 1913, 1885, 1886, 1890, 1889
 760, 1910,  856,  857, 1914, 1886,  850,  851, 1890
 761,  743, 1911, 1915,  744,  737, 1887, 1891,  738
 762, 1911, 1912, 1916, 1915, 1887, 1888, 1892, 1891
 763, 1912, 1913, 1917, 1916, 1888, 1889, 1893, 1892
 764, 1913, 1914, 1918, 1917, 1889, 1890, 1894, 1893
 765, 1914,  857,  858, 1918, 1890,  851,  852, 1894
 766,  744, 1915, 1919,  745,  738, 1891, 1895,  739
 767, 1915, 1916, 1920, 1919, 1891, 1892, 1896, 1895
 768, 1916, 1917, 1921, 1920, 1892, 1893, 1897, 1896
 769, 1917, 1918, 1922, 1921, 1893, 1894, 1898, 1897
 770, 1918,  858,  859, 1922, 1894,  852,  853, 1898
 771,  745, 1919, 1923,  746,  739, 1895, 1899,  740
 772, 1919, 1920, 1924, 1923, 1895, 1896, 1900, 1899
 773, 1920, 1921, 1925, 1924, 1896, 1897, 1901, 1900
 774, 1921, 1922, 1926, 1925, 1897, 1898, 1902, 1901
 775, 1922,  859,  860, 1926, 1898,  853,  854, 1902
 776,  746, 1923, 1031,  176,  740, 1899, 1027,  175
 777, 1923, 1924, 1032, 1031, 1899, 1900, 1028, 1027
 778, 1924, 1925, 1033, 1032, 1900, 1901, 1029, 1028
 779, 1925, 1926, 1034, 1033, 1901, 1902, 1030, 1029
 780, 1926,  860,  218, 1034, 1902,  854,  219, 1030
 781,  198,  959, 1927,  747,  199,  955, 1903,  741
 782,  959,  960, 1928, 1927,  955,  956, 1904, 1903
 783,  960,  961, 1929, 1928,  956,  957, 1905, 1904
 784,  961,  962, 1930, 1929,  957,  958, 1906, 1905
 785,  962,  234,  861, 1930,  958,  233,  855, 1906
 786,  747, 1927, 1931,  748,  741, 1903, 1907,  742
 787, 1927, 1928, 1932, 1931, 1903, 1904, 1908, 1907
 788, 1928, 1929, 1933, 1932, 1904, 1905, 1909, 1908
 789, 1929, 1930, 1934, 1933, 1905, 1906, 1910, 1909
 790, 1930,  861,  862, 1934, 1906,  855,  856, 1910
 791,  748, 1931, 1935,  749,  742, 1907, 1911,  743
 792, 1931, 1932, 1936, 1935, 1907, 1908, 1912, 1911
 793, 1932, 1933, 1937, 1936, 1908, 1909, 1913, 1912
 794, 1933, 1934, 1938, 1937, 1909, 1910, 1914, 1913
 795, 1934,  862,  863, 1938, 1910,  856,  857, 1914
 796,  749, 1935, 1939,  750,  743, 1911, 1915,  744
 797, 1935, 1936, 1940, 1939, 1911, 1912, 1916, 1915
 798, 1936, 1937, 1941, 1940, 1912, 1913, 1917, 1916
 799, 1937, 1938, 1942, 1941, 1913, 1914, 1918, 1917
 800, 1938,  863,  864, 1942, 1914,  857,  858, 1918
 801,  750, 1939, 1943,  751,  744, 1915, 1919,  745
 802, 1939, 1940, 1944, 1943, 1915, 1916, 1920, 1919
 803, 1940, 1941, 1945, 1944, 1916, 1917, 1921, 1920
 804, 1941, 1942, 1946, 1945, 1917, 1918, 1922, 1921
 805, 1942,  864,  865, 1946, 1918,  858,  859, 1922
 806,  751, 1943, 1947,  752,  745, 1919, 1923,  746
 807, 1943, 1944, 1948, 1947, 1919, 1920, 1924, 1923
 808, 1944, 1945, 1949, 1948, 1920, 1921, 1925, 1924
 809, 1945, 1946, 1950, 1949, 1921, 1922, 1926, 1925
 810, 1946,  865,  866, 1950, 1922,  859,  860, 1926
 811,  752, 1947, 1035,  177,  746, 1923, 1031,  176
 812, 1947, 1948, 1036, 1035, 1923, 1924, 1032, 1031
 813, 1948, 1949, 1037, 1036, 1924, 1925, 1033, 1032
 814, 1949, 1950, 1038, 1037, 1925, 1926, 1034, 1033
 815, 1950,  866,  217, 1038, 1926,  860,  218, 1034
 816,  197,  963, 1951,  753,  198,  959, 1927,  747
 817,  963,  964, 1952, 1951,  959,  960, 1928, 1927
 818,  964,  965, 1953, 1952,  960,  961, 1929, 1928
 819,  965,  966, 1954, 1953,  961,  962, 1930, 1929
 820,  966,  235,  867, 1954,  962,  234,  861, 1930
 821,  753, 1951, 1955,  754,  747, 1927, 1931,  748
 822, 1951, 1952, 1956, 1955, 1927, 1928, 1932, 1931
 823, 1952, 1953, 1957, 1956, 1928, 1929, 1933, 1932
 824, 1953, 1954, 1958, 1957, 1929, 1930, 1934, 1933
 825, 1954,  867,  868, 1958, 1930,  861,  862, 1934
 826,  754, 1955, 1959,  755,  748, 1931, 1935,  749
 827, 1955, 1956, 1960, 1959, 1931, 1932, 1936, 1935
 828, 1956, 1957, 1961, 1960, 1932, 1933, 1937, 1936
 829, 1957, 1958, 1962, 1961, 1933, 1934, 1938, 1937
 830, 1958,  868,  869, 1962, 1934,  862,  863, 1938
 831,  755, 1959, 1963,  756,  749, 1935, 1939,  750
 832, 1959, 1960, 1964, 1963, 1935, 1936, 1940, 1939
 833, 1960, 1961, 1965, 1964, 1936, 1937, 1941, 1940
 834, 1961, 1962, 1966, 1965, 1937, 1938, 1942, 1941
 835, 1962,  869,  870, 1966, 1938,  863,  864, 1942
 836,  756, 1963, 1967,  757,  750, 1939, 1943,  751
 837, 1963, 1964, 1968, 1967, 1939, 1940, 1944, 1943
 838, 1964, 1965, 1969, 1968, 1940, 1941, 1945, 1944
 839, 1965, 1966, 1970, 1969, 1941, 1942, 1946, 1945
 840, 1966,  870,  871, 1970, 1942,  864,  865, 1946
 841,  757, 1967, 1971,  758,  751, 1943, 1947,  752
 842, 1967, 1968, 1972, 1971, 1943, 1944, 1948, 1947
 843, 1968, 1969, 1973, 1972, 1944, 1945, 1949, 1948
 844, 1969, 1970, 1974, 1973, 1945, 1946, 1950, 1949
 845, 1970,  871,  872, 1974, 1946,  865,  866, 1950
 846,  758, 1971, 1039,  178,  752, 1947, 1035,  177
 847, 1971, 1972, 1040, 1039, 1947, 1948, 1036, 1035
 848, 1972, 1973, 1041, 1040, 1948, 1949, 1037, 1036
 849, 1973, 1974, 1042, 1041, 1949, 1950, 1038, 1037
 850, 1974,  872,  216, 1042, 1950,  866,  217, 1038
 851,  196,  967, 1975,  759,  197,  963, 1951,  753
 852,  967,  968, 1976, 1975,  963,  964, 1952, 1951
 853,  968,  969, 1977, 1976,  964,  965, 1953, 1952
 854,  969,  970, 1978, 1977,  965,  966, 1954, 1953
 855,  970,  236,  873, 1978,  966,  235,  867, 1954
 856,  759, 1975, 1979,  760,  753, 1951, 1955,  754
 857, 1975, 1976, 1980, 1979, 1951, 1952, 1956, 1955
 858, 1976, 1977, 1981, 1980, 1952, 1953, 1957, 1956
 859, 1977, 1978, 1982, 1981, 1953, 1954, 1958, 1957
 860, 1978,  873,  874, 1982, 1954,  867,  868, 1958
 861,  760, 1979, 1983,  761,  754, 1955, 1959,  755
 862, 1979, 1980, 1984, 1983, 1955, 1956, 1960, 1959
 863, 1980, 1981, 1985, 1984, 1956, 1957, 1961, 1960
 864, 1981, 1982, 1986, 1985, 1957, 1958, 1962, 1961
 865, 1982,  874,  875, 1986, 1958,  868,  869, 1962
 866,  761, 1983, 1987,  762,  755, 1959, 1963,  756
 867, 1983, 1984, 1988, 1987, 1959, 1960, 1964, 1963
 868, 1984, 1985, 1989, 1988, 1960, 1961, 1965, 1964
 869, 1985, 1986, 1990, 1989, 1961, 1962, 1966, 1965
 870, 1986,  875,  876, 1990, 1962,  869,  870, 1966
 871,  762, 1987, 1991,  763,  756, 1963, 1967,  757
 872, 1987, 1988, 1992, 1991, 1963, 1964, 1968, 1967
 873, 1988, 1989, 1993, 1992, 1964, 1965, 1969, 1968
 874, 1989, 1990, 1994, 1993, 1965, 1966, 1970, 1969
 875, 1990,  876,  877, 1994, 1966,  870,  871, 1970
 876,  763, 1991, 1995,  764,  757, 1967, 1971,  758
 877, 1991, 1992, 1996, 1995, 1967, 1968, 1972, 1971
 878, 1992, 1993, 1997, 1996, 1968, 1969, 1973, 1972
 879, 1993, 1994, 1998, 1997, 1969, 1970, 1974, 1973
 880, 1994,  877,  878, 1998, 1970,  871,  872, 1974
 881,  764, 1995, 1043,  179,  758, 1971, 1039,  178
 882, 1995, 1996, 1044, 1043, 1971, 1972, 1040, 1039
 883, 1996, 1997, 1045, 1044, 1972, 1973, 1041, 1040
 884, 1997, 1998, 1046, 1045, 1973, 1974, 1042, 1041
 885, 1998,  878,  215, 1046, 1974,  872,  216, 1042
 886,  195,  971, 1999,  765,  196,  967, 1975,  759
 887,  971,  972, 2000, 1999,  967,  968, 1976, 1975
 888,  972,  973, 2001, 2000,  968,  969, 1977, 1976
 889,  973,  974, 2002, 2001,  969,  970, 1978, 1977
 890,  974,  237,  879, 2002,  970,  236,  873, 1978
 891,  765, 1999, 2003,  766,  759, 1975, 1979,  760
 892, 1999, 2000, 2004, 2003, 1975, 1976, 1980, 1979
 893, 2000, 2001, 2005, 2004, 1976, 1977, 1981, 1980
 894, 2001, 2002, 2006, 2005, 1977, 1978, 1982, 1981
 895, 2002,  879,  880, 2006, 1978,  873,  874, 1982
 896,  766, 2003, 2007,  767,  760, 1979, 1983,  761
 897, 2003, 2004, 2008, 2007, 1979, 1980, 1984, 1983
 898, 2004, 2005, 2009, 2008, 1980, 1981, 1985, 1984
 899, 2005, 2006, 2010, 2009, 1981, 1982, 1986, 1985
 900, 2006,  880,  881, 2010, 1982,  874,  875, 1986
 901,  767, 2007, 2011,  768,  761, 1983, 1987,  762
 902, 2007, 2008, 2012, 2011, 1983, 1984, 1988, 1987
 903, 2008, 2009, 2013, 2012, 1984, 1985, 1989, 1988
 904, 2009, 2010, 2014, 2013, 1985, 1986, 1990, 1989
 905, 2010,  881,  882, 2014, 1986,  875,  876, 1990
 906,  768, 2011, 2015,  769,  762, 1987, 1991,  763
 907, 2011, 2012, 2016, 2015, 1987, 1988, 1992, 1991
 908, 2012, 2013, 2017, 2016, 1988, 1989, 1993, 1992
 909, 2013, 2014, 2018, 2017, 1989, 1990, 1994, 1993
 910, 2014,  882,  883, 2018, 1990,  876,  877, 1994
 911,  769, 2015, 2019,  770,  763, 1991, 1995,  764
 912, 2015, 2016, 2020, 2019, 1991, 1992, 1996, 1995
 913, 2016, 2017, 2021, 2020, 1992, 1993, 1997, 1996
 914, 2017, 2018, 2022, 2021, 1993, 1994, 1998, 1997
 915, 2018,  883,  884, 2022, 1994,  877,  878, 1998
 916,  770, 2019, 1047,  180,  764, 1995, 1043,  179
 917, 2019, 2020, 1048, 1047, 1995, 1996, 1044, 1043
 918, 2020, 2021, 1049, 1048, 1996, 1997, 1045, 1044
 919, 2021, 2022, 1050, 1049, 1997, 1998, 1046, 1045
 920, 2022,  884,  214, 1050, 1998,  878,  215, 1046
 921,  194,  975, 2023,  771,  195,  971, 1999,  765
 922,  975,  976, 2024, 2023,  971,  972, 2000, 1999
 923,  976,  977, 2025, 2024,  972,  973, 2001, 2000
 924,  977,  978, 2026, 2025,  973,  974, 2002, 2001
 925,  978,  238,  885, 2026,  974,  237,  879, 2002
 926,  771, 2023, 2027,  772,  765, 1999, 2003,  766
 927, 2023, 2024, 2028, 2027, 1999, 2000, 2004, 2003
 928, 2024, 2025, 2029, 2028, 2000, 2001, 2005, 2004
 929, 2025, 2026, 2030, 2029, 2001, 2002, 2006, 2005
 930, 2026,  885,  886, 2030, 2002,  879,  880, 2006
 931,  772, 2027, 2031,  773,  766, 2003, 2007,  767
 932, 2027, 2028, 2032, 2031, 2003, 2004, 2008, 2007
 933, 2028, 2029, 2033, 2032, 2004, 2005, 2009, 2008
 934, 2029, 2030, 2034, 2033, 2005, 2006, 2010, 2009
 935, 2030,  886,  887, 2034, 2006,  880,  881, 2010
 936,  773, 2031, 2035,  774,  767, 2007, 2011,  768
 937, 2031, 2032, 2036, 2035, 2007, 2008, 2012, 2011
 938, 2032, 2033, 2037, 2036, 2008, 2009, 2013, 2012
 939, 2033, 2034, 2038, 2037, 2009, 2010, 2014, 2013
 940, 2034,  887,  888, 2038, 2010,  881,  882, 2014
 941,  774, 2035, 2039,  775,  768, 2011, 2015,  769
 942, 2035, 2036, 2040, 2039, 2011, 2012, 2016, 2015
 943, 2036, 2037, 2041, 2040, 2012, 2013, 2017, 2016
 944, 2037, 2038, 2042, 2041, 2013, 2014, 2018, 2017
 945, 2038,  888,  889, 2042, 2014,  882,  883, 2018
 946,  775, 2039, 2043,  776,  769, 2015, 2019,  770
 947, 2039, 2040, 2044, 2043, 2015, 2016, 2020, 2019
 948, 2040, 2041, 2045, 2044, 2016, 2017, 2021, 2020
 949, 2041, 2042, 2046, 2045, 2017, 2018, 2022, 2021
 950, 2042,  889,  890, 2046, 2018,  883,  884, 2022
 951,  776, 2043, 1051,  181,  770, 2019, 1047,  180
 952, 2043, 2044, 1052, 1051, 2019, 2020, 1048, 1047
 953, 2044, 2045, 1053, 1052, 2020, 2021, 1049, 1048
 954, 2045, 2046, 1054, 1053, 2021, 2022, 1050, 1049
 955, 2046,  890,  213, 1054, 2022,  884,  214, 1050
 956,  193,  979, 2047,  777,  194,  975, 2023,  771
 957,  979,  980, 2048, 2047,  975,  976, 2024, 2023
 958,  980,  981, 2049, 2048,  976,  977, 2025, 2024
 959,  981,  982, 2050, 2049,  977,  978, 2026, 2025
 960,  982,  239,  891, 2050,  978,  238,  885, 2026
 961,  777, 2047, 2051,  778,  771, 2023, 2027,  772
 962, 2047, 2048, 2052, 2051, 2023, 2024, 2028, 2027
 963, 2048, 2049, 2053, 2052, 2024, 2025, 2029, 2028
 964, 2049, 2050, 2054, 2053, 2025, 2026, 2030, 2029
 965, 2050,  891,  892, 2054, 2026,  885,  886, 2030
 966,  778, 2051, 2055,  779,  772, 2027, 2031,  773
 967, 2051, 2052, 2056, 2055, 2027, 2028, 2032, 2031
 968, 2052, 2053, 2057, 2056, 2028, 2029, 2033, 2032
 969, 2053, 2054, 2058, 2057, 2029, 2030, 2034, 2033
 970, 2054,  892,  893, 2058, 2030,  886,  887, 2034
 971,  779, 2055, 2059,  780,  773, 2031, 2035,  774
 972, 2055, 2056, 2060, 2059, 2031, 2032, 2036, 2035
 973, 2056, 2057, 2061, 2060, 2032, 2033, 2037, 2036
 974, 2057, 2058, 2062, 2061, 2033, 2034, 2038, 2037
 975, 2058,  893,  894, 2062, 2034,  887,  888, 2038
 976,  780, 2059, 2063,  781,  774, 2035, 2039,  775
 977, 2059, 2060, 2064, 2063, 2035, 2036, 2040, 2039
 978, 2060, 2061, 2065, 2064, 2036, 2037, 2041, 2040
 979, 2061, 2062, 2066, 2065, 2037, 2038, 2042, 2041
 980, 2062,  894,  895, 2066, 2038,  888,  889, 2042
 981,  781, 2063, 2067,  782,  775, 2039, 2043,  776
 982, 2063, 2064, 2068, 2067, 2039, 2040, 2044, 2043
 983, 2064, 2065, 2069, 2068, 2040, 2041, 2045, 2044
 984, 2065, 2066, 2070, 2069, 2041, 2042, 2046, 2045
 985, 2066,  895,  896, 2070, 2042,  889,  890, 2046
 986,  782, 2067, 1055,  182,  776, 2043, 1051,  181
 987, 2067, 2068, 1056, 1055, 2043, 2044, 1052, 1051
 988, 2068, 2069, 1057, 1056, 2044, 2045, 1053, 1052
 989, 2069, 2070, 1058, 1057, 2045, 2046, 1054, 1053
 990, 2070,  896,  212, 1058, 2046,  890,  213, 1054
 991,  192,  983, 2071,  783,  193,  979, 2047,  777
 992,  983,  984, 2072, 2071,  979,  980, 2048, 2047
 993,  984,  985, 2073, 2072,  980,  981, 2049, 2048
 994,  985,  986, 2074, 2073,  981,  982, 2050, 2049
 995,  986,  240,  897, 2074,  982,  239,  891, 2050
 996,  783, 2071, 2075,  784,  777, 2047, 2051,  778
 997, 2071, 2072, 2076, 2075, 2047, 2048, 2052, 2051
 998, 2072, 2073, 2077, 2076, 2048, 2049, 2053, 2052
 999, 2073, 2074, 2078, 2077, 2049, 2050, 2054, 2053
1000, 2074,  897,  898, 2078, 2050,  891,  892, 2054
1001,  784, 2075, 2079,  785,  778, 2051, 2055,  779
1002, 2075, 2076, 2080, 2079, 2051, 2052, 2056, 2055
1003, 2076, 2077, 2081, 2080, 2052, 2053, 2057, 2056
1004, 2077, 2078, 2082, 2081, 2053, 2054, 2058, 2057
1005, 2078,  898,  899, 2082, 2054,  892,  893, 2058
1006,  785, 2079, 2083,  786,  779, 2055, 2059,  780
1007, 2079, 2080, 2084, 2083, 2055, 2056, 2060, 2059
1008, 2080, 2081, 2085, 2084, 2056, 2057, 2061, 2060
1009, 2081, 2082, 2086, 2085, 2057, 2058, 2062, 2061
1010, 2082,  899,  900, 2086, 2058,  893,  894, 2062
1011,  786, 2083, 2087,  787,  780, 2059, 2063,  781
1012, 2083, 2084, 2088, 2087, 2059, 2060, 2064, 2063
1013, 2084, 2085, 2089, 2088, 2060, 2061, 2065, 2064
1014, 2085, 2086, 2090, 2089, 2061, 2062, 2066, 2065
1015, 2086,  900,  901, 2090, 2062,  894,  895, 2066
1016,  787, 2087, 2091,  788,  781, 2063, 2067,  782
1017, 2087, 2088, 2092, 2091, 2063, 2064, 2068, 2067
1018, 2088, 2089, 2093, 2092, 2064, 2065, 2069, 2068
1019, 2089, 2090, 2094, 2093, 2065, 2066, 2070, 2069
1020, 2090,  901,  902, 2094, 2066,  895,  896, 2070
1021,  788, 2091, 1059,  183,  782, 2067, 1055,  182
1022, 2091, 2092, 1060, 1059, 2067, 2068, 1056, 1055
1023, 2092, 2093, 1061, 1060, 2068, 2069, 1057, 1056
1024, 2093, 2094, 1062, 1061, 2069, 2070, 1058, 1057
1025, 2094,  902,  211, 1062, 2070,  896,  212, 1058
1026,  191,  987, 2095,  789,  192,  983, 2071,  783
1027,  987,  988, 2096, 2095,  983,  984, 2072, 2071
1028,  988,  989, 2097, 2096,  984,  985, 2073, 2072
1029,  989,  990, 2098, 2097,  985,  986, 2074, 2073
1030,  990,  241,  903, 2098,  986,  240,  897, 2074
1031,  789, 2095, 2099,  790,  783, 2071, 2075,  784
1032, 2095, 2096, 2100, 2099, 2071, 2072, 2076, 2075
1033, 2096, 2097, 2101, 2100, 2072, 2073, 2077, 2076
1034, 2097, 2098, 2102, 2101, 2073, 2074, 2078, 2077
1035, 2098,  903,  904, 2102, 2074,  897,  898, 2078
1036,  790, 2099, 2103,  791,  784, 2075, 2079,  785
1037, 2099, 2100, 2104, 2103, 2075, 2076, 2080, 2079
1038, 2100, 2101, 2105, 2104, 2076, 2077, 2081, 2080
1039, 2101, 2102, 2106, 2105, 2077, 2078, 2082, 2081
1040, 2102,  904,  905, 2106, 2078,  898,  899, 2082
1041,  791, 2103, 2107,  792,  785, 2079, 2083,  786
1042, 2103, 2104, 2108, 2107, 2079, 2080, 2084, 2083
1043, 2104, 2105, 2109, 2108, 2080, 2081, 2085, 2084
1044, 2105, 2106, 2110, 2109, 2081, 2082, 2086, 2085
1045, 2106,  905,  906, 2110, 2082,  899,  900, 2086
1046,  792, 2107, 2111,  793,  786, 2083, 2087,  787
1047, 2107, 2108, 2112, 2111, 2083, 2084, 2088, 2087
1048, 2108, 2109, 2113, 2112, 2084, 2085, 2089, 2088
1049, 2109, 2110, 2114, 2113, 2085, 2086, 2090, 2089
1050, 2110,  906,  907, 2114, 2086,  900,  901, 2090
1051,  793, 2111, 2115,  794,  787, 2087, 2091,  788
1052, 2111, 2112, 2116, 2115, 2087, 2088, 2092, 2091
1053, 2112, 2113, 2117, 2116, 2088, 2089, 2093, 2092
1054, 2113, 2114, 2118, 2117, 2089, 2090, 2094, 2093
1055, 2114,  907,  908, 2118, 2090,  901,  902, 2094
1056,  794, 2115, 1063,  184,  788, 2091, 1059,  183
1057, 2115, 2116, 1064, 1063, 2091, 2092, 1060, 1059
1058, 2116, 2117, 1065, 1064, 2092, 2093, 1061, 1060
1059, 2117, 2118, 1066, 1065, 2093, 2094, 1062, 1061
1060, 2118,  908,  210, 1066, 2094,  902,  211, 1062
1061,  190,  991, 2119,  795,  191,  987, 2095,  789
1062,  991,  992, 2120, 2119,  987,  988, 2096, 2095
1063,  992,  993, 2121, 2120,  988,  989, 2097, 2096
1064,  993,  994, 2122, 2121,  989,  990, 2098, 2097
1065,  994,  242,  909, 2122,  990,  241,  903, 2098
1066,  795, 2119, 2123,  796,  789, 2095, 2099,  790
1067, 2119, 2120, 2124, 2123, 2095, 2096, 2100, 2099
1068, 2120, 2121, 2125, 2124, 2096, 2097, 2101, 2100
1069, 2121, 2122, 2126, 2125, 2097, 2098, 2102, 2101
1070, 2122,  909,  910, 2126, 2098,  903,  904, 2102
1071,  796, 2123, 2127,  797,  790, 2099, 2103,  791
1072, 2123, 2124, 2128, 2127, 2099, 2100, 2104, 2103
1073, 2124, 2125, 2129, 2128, 2100, 2101, 2105, 2104
1074, 2125, 2126, 2130, 2129, 2101, 2102, 2106, 2105
1075, 2126,  910,  911, 2130, 2102,  904,  905, 2106
1076,  797, 2127, 2131,  798,  791, 2103, 2107,  792
1077, 2127, 2128, 2132, 2131, 2103, 2104, 2108, 2107
1078, 2128, 2129, 2133, 2132, 2104, 2105, 2109, 2108
1079, 2129, 2130, 2134, 2133, 2105, 2106, 2110, 2109
1080, 2130,  911,  912, 2134, 2106,  905,  906, 2110
1081,  798, 2131, 2135,  799,  792, 2107, 2111,  793
1082, 2131, 2132, 2136, 2135, 2107, 2108, 2112, 2111
1083, 2132, 2133, 2137, 2136, 2108, 2109, 2113, 2112
1084, 2133, 2134, 2138, 2137, 2109, 2110, 2114, 2113
1085, 2134,  912,  913, 2138, 2110,  906,  907, 2114
1086,  799, 2135, 2139,  800,  793, 2111, 2115,  794
1087, 2135, 2136, 2140, 2139, 2111, 2112, 2116, 2115
1088, 2136, 2137, 2141, 2140, 2112, 2113, 2117, 2116
1089, 2137, 2138, 2142, 2141, 2113, 2114, 2118, 2117
1090, 2138,  913,  914, 2142, 2114,  907,  908, 2118
1091,  800, 2139, 1067,  185,  794, 2115, 1063,  184
1092, 2139, 2140, 1068, 1067, 2115, 2116, 1064, 1063
1093, 2140, 2141, 1069, 1068, 2116, 2117, 1065, 1064
1094, 2141, 2142, 1070, 1069, 2117, 2118, 1066, 1065
1095, 2142,  914,  209, 1070, 2118,  908,  210, 1066
1096,  189,  995, 2143,  801,  190,  991, 2119,  795
1097,  995,  996, 2144, 2143,  991,  992, 2120, 2119
1098,  996,  997, 2145, 2144,  992,  993, 2121, 2120
1099,  997,  998, 2146, 2145,  993,  994, 2122, 2121
1100,  998,  243,  915, 2146,  994,  242,  909, 2122
1101,  801, 2143, 2147,  802,  795, 2119, 2123,  796
1102, 2143, 2144, 2148, 2147, 2119, 2120, 2124, 2123
1103, 2144, 2145, 2149, 2148, 2120, 2121, 2125, 2124
1104, 2145, 2146, 2150, 2149, 2121, 2122, 2126, 2125
1105, 2146,  915,  916, 2150, 2122,  909,  910, 2126
1106,  802, 2147, 2151,  803,  796, 2123, 2127,  797
1107, 2147, 2148, 2152, 2151, 2123, 2124, 2128, 2127
1108, 2148, 2149, 2153, 2152, 2124, 2125, 2129, 2128
1109, 2149, 2150, 2154, 2153, 2125, 2126, 2130, 2129
1110, 2150,  916,  917, 2154, 2126,  910,  911, 2130
1111,  803, 2151, 2155,  804,  797, 2127, 2131,  798
1112, 2151, 2152, 2156, 2155, 2127, 2128, 2132, 2131
1113, 2152, 2153, 2157, 2156, 2128, 2129, 2133, 2132
1114, 2153, 2154, 2158, 2157, 2129, 2130, 2134, 2133
1115, 2154,  917,  918, 2158, 2130,  911,  912, 2134
1116,  804, 2155, 2159,  805,  798, 2131, 2135,  799
1117, 2155, 2156, 2160, 2159, 2131, 2132, 2136, 2135
1118, 2156, 2157, 2161, 2160, 2132, 2133, 2137, 2136
1119, 2157, 2158, 2162, 2161, 2133, 2134, 2138, 2137
1120, 2158,  918,  919, 2162, 2134,  912,  913, 2138
1121,  805, 2159, 2163,  806,  799, 2135, 2139,  800
1122, 2159, 2160, 2164, 2163, 2135, 2136, 2140, 2139
1123, 2160, 2161, 2165, 2164, 2136, 2137, 2141, 2140
1124, 2161, 2162, 2166, 2165, 2137, 2138, 2142, 2141
1125, 2162,  919,  920, 2166, 2138,  913,  914, 2142
1126,  806, 2163, 1071,  186,  800, 2139, 1067,  185
1127, 2163, 2164, 1072, 1071, 2139, 2140, 1068, 1067
1128, 2164, 2165, 1073, 1072, 2140, 2141, 1069, 1068
1129, 2165, 2166, 1074, 1073, 2141, 2142, 1070, 1069
1130, 2166,  920,  208, 1074, 2142,  914,  209, 1070
1131,  188,  999, 2167,  807,  189,  995, 2143,  801
1132,  999, 1000, 2168, 2167,  995,  996, 2144, 2143
1133, 1000, 1001, 2169, 2168,  996,  997, 2145, 2144
1134, 1001, 1002, 2170, 2169,  997,  998, 2146, 2145
1135, 1002,  244,  921, 2170,  998,  243,  915, 2146
1136,  807, 2167, 2171,  808,  801, 2143, 2147,  802
1137, 2167, 2168, 2172, 2171, 2143, 2144, 2148, 2147
1138, 2168, 2169, 2173, 2172, 2144, 2145, 2149, 2148
1139, 2169, 2170, 2174, 2173, 2145, 2146, 2150, 2149
1140, 2170,  921,  922, 2174, 2146,  915,  916, 2150
1141,  808, 2171, 2175,  809,  802, 2147, 2151,  803
1142, 2171, 2172, 2176, 2175, 2147, 2148, 2152, 2151
1143, 2172, 2173, 2177, 2176, 2148, 2149, 2153, 2152
1144, 2173, 2174, 2178, 2177, 2149, 2150, 2154, 2153
1145, 2174,  922,  923, 2178, 2150,  916,  917, 2154
1146,  809, 2175, 2179,  810,  803, 2151, 2155,  804
1147, 2175, 2176, 2180, 2179, 2151, 2152, 2156, 2155
1148, 2176, 2177, 2181, 2180, 2152, 2153, 2157, 2156
1149, 2177, 2178, 2182, 2181, 2153, 2154, 2158, 2157
1150, 2178,  923,  924, 2182, 2154,  917,  918, 2158
1151,  810, 2179, 2183,  811,  804, 2155, 2159,  805
1152, 2179, 2180, 2184, 2183, 2155, 2156, 2160, 2159
1153, 2180, 2181, 2185, 2184, 2156, 2157, 2161, 2160
1154, 2181, 2182, 2186, 2185, 2157, 2158, 2162, 2161
1155, 2182,  924,  925, 2186, 2158,  918,  919, 2162
1156,  811, 2183, 2187,  812,  805, 2159, 2163,  806
1157, 2183, 2184, 2188, 2187, 2159, 2160, 2164, 2163
1158, 2184, 2185, 2189, 2188, 2160, 2161, 2165, 2164
1159, 2185, 2186, 2190, 2189, 2161, 2162, 2166, 2165
1160, 2186,  925,  926, 2190, 2162,  919,  920, 2166
1161,  812, 2187, 1075,  187,  806, 2163, 1071,  186
1162, 2187, 2188, 1076, 1075, 2163, 2164, 1072, 1071
1163, 2188, 2189, 1077, 1076, 2164, 2165, 1073, 1072
1164, 2189, 2190, 1078, 1077, 2165, 2166, 1074, 1073
1165, 2190,  926,  207, 1078, 2166,  920,  208, 1074
1166,   16,  152,  675,  163,  188,  999, 2167,  807
1167,  152,  151,  676,  675,  999, 1000, 2168, 2167
1168,  151,  150,  677,  676, 1000, 1001, 2169, 2168
1169,  150,  149,  678,  677, 1001, 1002, 2170, 2169
1170,  149,   13,  158,  678, 1002,  244,  921, 2170
1171,  163,  675,  679,  164,  807, 2167, 2171,  808
1172,  675,  676,  680,  679, 2167, 2168, 2172, 2171
1173,  676,  677,  681,  680, 2168, 2169, 2173, 2172
1174,  677,  678,  682,  681, 2169, 2170, 2174, 2173
1175,  678,  158,  157,  682, 2170,  921,  922, 2174
1176,  164,  679,  683,  165,  808, 2171, 2175,  809
1177,  679,  680,  684,  683, 2171, 2172, 2176, 2175
1178,  680,  681,  685,  684, 2172, 2173, 2177, 2176
1179,  681,  682,  686,  685, 2173, 2174, 2178, 2177
1180,  682,  157,  156,  686, 2174,  922,  923, 2178
1181,  165,  683,  687,  166,  809, 2175, 2179,  810
1182,  683,  684,  688,  687, 2175, 2176, 2180, 2179
1183,  684,  685,  689,  688, 2176, 2177, 2181, 2180
1184,  685,  686,  690,  689, 2177, 2178, 2182, 2181
1185,  686,  156,  155,  690, 2178,  923,  924, 2182
1186,  166,  687,  691,  167,  810, 2179, 2183,  811
1187,  687,  688,  692,  691, 2179, 2180, 2184, 2183
1188,  688,  689,  693,  692, 2180, 2181, 2185, 2184
1189,  689,  690,  694,  693, 2181, 2182, 2186, 2185
1190,  690,  155,  154,  694, 2182,  924,  925, 2186
1191,  167,  691,  695,  168,  811, 2183, 2187,  812
1192,  691,  692,  696,  695, 2183, 2184, 2188, 2187
1193,  692,  693,  697,  696, 2184, 2185, 2189, 2188
1194,  693,  694,  698,  697, 2185, 2186, 2190, 2189
1195,  694,  154,  153,  698, 2186,  925,  926, 2190
1196,  168,  695,  159,   15,  812, 2187, 1075,  187
1197,  695,  696,  160,  159, 2187, 2188, 1076, 1075
1198,  696,  697,  161,  160, 2188, 2189, 1077, 1076
1199,  697,  698,  162,  161, 2189, 2190, 1078, 1077
1200,  698,  153,   14,  162, 2190,  926,  207, 1078
1201,  110,  502, 2191, 1111,    2,   24, 1079,  252
1202,  502,  501, 2192, 2191,   24,   23, 1080, 1079
1203,  501,  500, 2193, 2192,   23,   22, 1081, 1080
1204,  500,  499, 2194, 2193,   22,   21, 1082, 1081
1205,  499,   90, 1187, 2194,   21,    1,  245, 1082
1206, 1111, 2191, 2195, 1112,  252, 1079, 1083,  251
1207, 2191, 2192, 2196, 2195, 1079, 1080, 1084, 1083
1208, 2192, 2193, 2197, 2196, 1080, 1081, 1085, 1084
1209, 2193, 2194, 2198, 2197, 1081, 1082, 1086, 1085
1210, 2194, 1187, 1188, 2198, 1082,  245,  246, 1086
1211, 1112, 2195, 2199, 1113,  251, 1083, 1087,  250
1212, 2195, 2196, 2200, 2199, 1083, 1084, 1088, 1087
1213, 2196, 2197, 2201, 2200, 1084, 1085, 1089, 1088
1214, 2197, 2198, 2202, 2201, 1085, 1086, 1090, 1089
1215, 2198, 1188, 1189, 2202, 1086,  246,  247, 1090
1216, 1113, 2199, 2203, 1114,  250, 1087, 1091,  249
1217, 2199, 2200, 2204, 2203, 1087, 1088, 1092, 1091
1218, 2200, 2201, 2205, 2204, 1088, 1089, 1093, 1092
1219, 2201, 2202, 2206, 2205, 1089, 1090, 1094, 1093
1220, 2202, 1189, 1190, 2206, 1090,  247,  248, 1094
1221, 1114, 2203,  927,  206,  249, 1091,  129,    9
1222, 2203, 2204,  928,  927, 1091, 1092,  130,  129
1223, 2204, 2205,  929,  928, 1092, 1093,  131,  130
1224, 2205, 2206,  930,  929, 1093, 1094,  132,  131
1225, 2206, 1190,  226,  930, 1094,  248,   10,  132
1226,  111,  506, 2207, 1115,  110,  502, 2191, 1111
1227,  506,  505, 2208, 2207,  502,  501, 2192, 2191
1228,  505,  504, 2209, 2208,  501,  500, 2193, 2192
1229,  504,  503, 2210, 2209,  500,  499, 2194, 2193
1230,  503,   89, 1191, 2210,  499,   90, 1187, 2194
1231, 1115, 2207, 2211, 1116, 1111, 2191, 2195, 1112
1232, 2207, 2208, 2212, 2211, 2191, 2192, 2196, 2195
1233, 2208, 2209, 2213, 2212, 2192, 2193, 2197, 2196
1234, 2209, 2210, 2214, 2213, 2193, 2194, 2198, 2197
1235, 2210, 1191, 1192, 2214, 2194, 1187, 1188, 2198
1236, 1116, 2211, 2215, 1117, 1112, 2195, 2199, 1113
1237, 2211, 2212, 2216, 2215, 2195, 2196, 2200, 2199
1238, 2212, 2213, 2217, 2216, 2196, 2197, 2201, 2200
1239, 2213, 2214, 2218, 2217, 2197, 2198, 2202, 2201
1240, 2214, 1192, 1193, 2218, 2198, 1188, 1189, 2202
1241, 1117, 2215, 2219, 1118, 1113, 2199, 2203, 1114
1242, 2215, 2216, 2220, 2219, 2199, 2200, 2204, 2203
1243, 2216, 2217, 2221, 2220, 2200, 2201, 2205, 2204
1244, 2217, 2218, 2222, 2221, 2201, 2202, 2206, 2205
1245, 2218, 1193, 1194, 2222, 2202, 1189, 1190, 2206
1246, 1118, 2219,  931,  205, 1114, 2203,  927,  206
1247, 2219, 2220,  932,  931, 2203, 2204,  928,  927
1248, 2220, 2221,  933,  932, 2204, 2205,  929,  928
1249, 2221, 2222,  934,  933, 2205, 2206,  930,  929
1250, 2222, 1194,  227,  934, 2206, 1190,  226,  930
1251,  112,  510, 2223, 1119,  111,  506, 2207, 1115
1252,  510,  509, 2224, 2223,  506,  505, 2208, 2207
1253,  509,  508, 2225, 2224,  505,  504, 2209, 2208
1254,  508,  507, 2226, 2225,  504,  503, 2210, 2209
1255,  507,   88, 1195, 2226,  503,   89, 1191, 2210
1256, 1119, 2223, 2227, 1120, 1115, 2207, 2211, 1116
1257, 2223, 2224, 2228, 2227, 2207, 2208, 2212, 2211
1258, 2224, 2225, 2229, 2228, 2208, 2209, 2213, 2212
1259, 2225, 2226, 2230, 2229, 2209, 2210, 2214, 2213
1260, 2226, 1195, 1196, 2230, 2210, 1191, 1192, 2214
1261, 1120, 2227, 2231, 1121, 1116, 2211, 2215, 1117
1262, 2227, 2228, 2232, 2231, 2211, 2212, 2216, 2215
1263, 2228, 2229, 2233, 2232, 2212, 2213, 2217, 2216
1264, 2229, 2230, 2234, 2233, 2213, 2214, 2218, 2217
1265, 2230, 1196, 1197, 2234, 2214, 1192, 1193, 2218
1266, 1121, 2231, 2235, 1122, 1117, 2215, 2219, 1118
1267, 2231, 2232, 2236, 2235, 2215, 2216, 2220, 2219
1268, 2232, 2233, 2237, 2236, 2216, 2217, 2221, 2220
1269, 2233, 2234, 2238, 2237, 2217, 2218, 2222, 2221
1270, 2234, 1197, 1198, 2238, 2218, 1193, 1194, 2222
1271, 1122, 2235,  935,  204, 1118, 2219,  931,  205
1272, 2235, 2236,  936,  935, 2219, 2220,  932,  931
1273, 2236, 2237,  937,  936, 2220, 2221,  933,  932
1274, 2237, 2238,  938,  937, 2221, 2222,  934,  933
1275, 2238, 1198,  228,  938, 2222, 1194,  227,  934
1276,  113,  514, 2239, 1123,  112,  510, 2223, 1119
1277,  514,  513, 2240, 2239,  510,  509, 2224, 2223
1278,  513,  512, 2241, 2240,  509,  508, 2225, 2224
1279,  512,  511, 2242, 2241,  508,  507, 2226, 2225
1280,  511,   87, 1199, 2242,  507,   88, 1195, 2226
1281, 1123, 2239, 2243, 1124, 1119, 2223, 2227, 1120
1282, 2239, 2240, 2244, 2243, 2223, 2224, 2228, 2227
1283, 2240, 2241, 2245, 2244, 2224, 2225, 2229, 2228
1284, 2241, 2242, 2246, 2245, 2225, 2226, 2230, 2229
1285, 2242, 1199, 1200, 2246, 2226, 1195, 1196, 2230
1286, 1124, 2243, 2247, 1125, 1120, 2227, 2231, 1121
1287, 2243, 2244, 2248, 2247, 2227, 2228, 2232, 2231
1288, 2244, 2245, 2249, 2248, 2228, 2229, 2233, 2232
1289, 2245, 2246, 2250, 2249, 2229, 2230, 2234, 2233
1290, 2246, 1200, 1201, 2250, 2230, 1196, 1197, 2234
1291, 1125, 2247, 2251, 1126, 1121, 2231, 2235, 1122
1292, 2247, 2248, 2252, 2251, 2231, 2232, 2236, 2235
1293, 2248, 2249, 2253, 2252, 2232, 2233, 2237, 2236
1294, 2249, 2250, 2254, 2253, 2233, 2234, 2238, 2237
1295, 2250, 1201, 1202, 2254, 2234, 1197, 1198, 2238
1296, 1126, 2251,  939,  203, 1122, 2235,  935,  204
1297, 2251, 2252,  940,  939, 2235, 2236,  936,  935
1298, 2252, 2253,  941,  940, 2236, 2237,  937,  936
1299, 2253, 2254,  942,  941, 2237, 2238,  938,  937
1300, 2254, 1202,  229,  942, 2238, 1198,  228,  938
1301,  114,  518, 2255, 1127,  113,  514, 2239, 1123
1302,  518,  517, 2256, 2255,  514,  513, 2240, 2239
1303,  517,  516, 2257, 2256,  513,  512, 2241, 2240
1304,  516,  515, 2258, 2257,  512,  511, 2242, 2241
1305,  515,   86, 1203, 2258,  511,   87, 1199, 2242
1306, 1127, 2255, 2259, 1128, 1123, 2239, 2243, 1124
1307, 2255, 2256, 2260, 2259, 2239, 2240, 2244, 2243
1308, 2256, 2257, 2261, 2260, 2240, 2241, 2245, 2244
1309, 2257, 2258, 2262, 2261, 2241, 2242, 2246, 2245
1310, 2258, 1203, 1204, 2262, 2242, 1199, 1200, 2246
1311, 1128, 2259, 2263, 1129, 1124, 2243, 2247, 1125
1312, 2259, 2260, 2264, 2263, 2243, 2244, 2248, 2247
1313, 2260, 2261, 2265, 2264, 2244, 2245, 2249, 2248
1314, 2261, 2262, 2266, 2265, 2245, 2246, 2250, 2249
1315, 2262, 1204, 1205, 2266, 2246, 1200, 1201, 2250
1316, 1129, 2263, 2267, 1130, 1125, 2247, 2251, 1126
1317, 2263, 2264, 2268, 2267, 2247, 2248, 2252, 2251
1318, 2264, 2265, 2269, 2268, 2248, 2249, 2253, 2252
1319, 2265, 2266, 2270, 2269, 2249, 2250, 2254, 2253
1320, 2266, 1205, 1206, 2270, 2250, 1201, 1202, 2254
1321, 1130, 2267,  943,  202, 1126, 2251,  939,  203
1322, 2267, 2268,  944,  943, 2251, 2252,  940,  939
1323, 2268, 2269,  945,  944, 2252, 2253,  941,  940
1324, 2269, 2270,  946,  945, 2253, 2254,  942,  941
1325, 2270, 1206,  230,  946, 2254, 1202,  229,  942
1326,  115,  522, 2271, 1131,  114,  518, 2255, 1127
1327,  522,  521, 2272, 2271,  518,  517, 2256, 2255
1328,  521,  520, 2273, 2272,  517,  516, 2257, 2256
1329,  520,  519, 2274, 2273,  516,  515, 2258, 2257
1330,  519,   85, 1207, 2274,  515,   86, 1203, 2258
1331, 1131, 2271, 2275, 1132, 1127, 2255, 2259, 1128
1332, 2271, 2272, 2276, 2275, 2255, 2256, 2260, 2259
1333, 2272, 2273, 2277, 2276, 2256, 2257, 2261, 2260
1334, 2273, 2274, 2278, 2277, 2257, 2258, 2262, 2261
1335, 2274, 1207, 1208, 2278, 2258, 1203, 1204, 2262
1336, 1132, 2275, 2279, 1133, 1128, 2259, 2263, 1129
1337, 2275, 2276, 2280, 2279, 2259, 2260, 2264, 2263
1338, 2276, 2277, 2281, 2280, 2260, 2261, 2265, 2264
1339, 2277, 2278, 2282, 2281, 2261, 2262, 2266, 2265
1340, 2278, 1208, 1209, 2282, 2262, 1204, 1205, 2266
1341, 1133, 2279, 2283, 1134, 1129, 2263, 2267, 1130
1342, 2279, 2280, 2284, 2283, 2263, 2264, 2268, 2267
1343, 2280, 2281, 2285, 2284, 2264, 2265, 2269, 2268
1344, 2281, 2282, 2286, 2285, 2265, 2266, 2270, 2269
1345, 2282, 1209, 1210, 2286, 2266, 1205, 1206, 2270
1346, 1134, 2283,  947,  201, 1130, 2267,  943,  202
1347, 2283, 2284,  948,  947, 2267, 2268,  944,  943
1348, 2284, 2285,  949,  948, 2268, 2269,  945,  944
1349, 2285, 2286,  950,  949, 2269, 2270,  946,  945
1350, 2286, 1210,  231,  950, 2270, 1206,  230,  946
1351,  116,  526, 2287, 1135,  115,  522, 2271, 1131
1352,  526,  525, 2288, 2287,  522,  521, 2272, 2271
1353,  525,  524, 2289, 2288,  521,  520, 2273, 2272
1354,  524,  523, 2290, 2289,  520,  519, 2274, 2273
1355,  523,   84, 1211, 2290,  519,   85, 1207, 2274
1356, 1135, 2287, 2291, 1136, 1131, 2271, 2275, 1132
1357, 2287, 2288, 2292, 2291, 2271, 2272, 2276, 2275
1358, 2288, 2289, 2293, 2292, 2272, 2273, 2277, 2276
1359, 2289, 2290, 2294, 2293, 2273, 2274, 2278, 2277
1360, 2290, 1211, 1212, 2294, 2274, 1207, 1208, 2278
1361, 1136, 2291, 2295, 1137, 1132, 2275, 2279, 1133
1362, 2291, 2292, 2296, 2295, 2275, 2276, 2280, 2279
1363, 2292, 2293, 2297, 2296, 2276, 2277, 2281, 2280
1364, 2293, 2294, 2298, 2297, 2277, 2278, 2282, 2281
1365, 2294, 1212, 1213, 2298, 2278, 1208, 1209, 2282
1366, 1137, 2295, 2299, 1138, 1133, 2279, 2283, 1134
1367, 2295, 2296, 2300, 2299, 2279, 2280, 2284, 2283
1368, 2296, 2297, 2301, 2300, 2280, 2281, 2285, 2284
1369, 2297, 2298, 2302, 2301, 2281, 2282, 2286, 2285
1370, 2298, 1213, 1214, 2302, 2282, 1209, 1210, 2286
1371, 1138, 2299,  951,  200, 1134, 2283,  947,  201
1372, 2299, 2300,  952,  951, 2283, 2284,  948,  947
1373, 2300, 2301,  953,  952, 2284, 2285,  949,  948
1374, 2301, 2302,  954,  953, 2285, 2286,  950,  949
1375, 2302, 1214,  232,  954, 2286, 1210,  231,  950
1376,  117,  530, 2303, 1139,  116,  526, 2287, 1135
1377,  530,  529, 2304, 2303,  526,  525, 2288, 2287
1378,  529,  528, 2305, 2304,  525,  524, 2289, 2288
1379,  528,  527, 2306, 2305,  524,  523, 2290, 2289
1380,  527,   83, 1215, 2306,  523,   84, 1211, 2290
1381, 1139, 2303, 2307, 1140, 1135, 2287, 2291, 1136
1382, 2303, 2304, 2308, 2307, 2287, 2288, 2292, 2291
1383, 2304, 2305, 2309, 2308, 2288, 2289, 2293, 2292
1384, 2305, 2306, 2310, 2309, 2289, 2290, 2294, 2293
1385, 2306, 1215, 1216, 2310, 2290, 1211, 1212, 2294
1386, 1140, 2307, 2311, 1141, 1136, 2291, 2295, 1137
1387, 2307, 2308, 2312, 2311, 2291, 2292, 2296, 2295
1388, 2308, 2309, 2313, 2312, 2292, 2293, 2297, 2296
1389, 2309, 2310, 2314, 2313, 2293, 2294, 2298, 2297
1390, 2310, 1216, 1217, 2314, 2294, 1212, 1213, 2298
1391, 1141, 2311, 2315, 1142, 1137, 2295, 2299, 1138
1392, 2311, 2312, 2316, 2315, 2295, 2296, 2300, 2299
1393, 2312, 2313, 2317, 2316, 2296, 2297, 2301, 2300
1394, 2313, 2314, 2318, 2317, 2297, 2298, 2302, 2301
1395, 2314, 1217, 1218, 2318, 2298, 1213, 1214, 2302
1396, 1142, 2315,  955,  199, 1138, 2299,  951,  200
1397, 2315, 2316,  956,  955, 2299, 2300,  952,  951
1398, 2316, 2317,  957,  956, 2300, 2301,  953,  952
1399, 2317, 2318,  958,  957, 2301, 2302,  954,  953
1400, 2318, 1218,  233,  958, 2302, 1214,  232,  954
1401,  118,  534, 2319, 1143,  117,  530, 2303, 1139
1402,  534,  533, 2320, 2319,  530,  529, 2304, 2303
1403,  533,  532, 2321, 2320,  529,  528, 2305, 2304
1404,  532,  531, 2322, 2321,  528,  527, 2306, 2305
1405,  531,   82, 1219, 2322,  527,   83, 1215, 2306
1406, 1143, 2319, 2323, 1144, 1139, 2303, 2307, 1140
1407, 2319, 2320, 2324, 2323, 2303, 2304, 2308, 2307
1408, 2320, 2321, 2325, 2324, 2304, 2305, 2309, 2308
1409, 2321, 2322, 2326, 2325, 2305, 2306, 2310, 2309
1410, 2322, 1219, 1220, 2326, 2306, 1215, 1216, 2310
1411, 1144, 2323, 2327, 1145, 1140, 2307, 2311, 1141
1412, 2323, 2324, 2328, 2327, 2307, 2308, 2312, 2311
1413, 2324, 2325, 2329, 2328, 2308, 2309, 2313, 2312
1414, 2325, 2326, 2330, 2329, 2309, 2310, 2314, 2313
1415, 2326, 1220, 1221, 2330, 2310, 1216, 1217, 2314
1416, 1145, 2327, 2331, 1146, 1141, 2311, 2315, 1142
1417, 2327, 2328, 2332, 2331, 2311, 2312, 2316, 2315
1418, 2328, 2329, 2333, 2332, 2312, 2313, 2317, 2316
1419, 2329, 2330, 2334, 2333, 2313, 2314, 2318, 2317
1420, 2330, 1221, 1222, 2334, 2314, 1217, 1218, 2318
1421, 1146, 2331,  959,  198, 1142, 2315,  955,  199
1422, 2331, 2332,  960,  959, 2315, 2316,  956,  955
1423, 2332, 2333,  961,  960, 2316, 2317,  957,  956
1424, 2333, 2334,  962,  961, 2317, 2318,  958,  957
1425, 2334, 1222,  234,  962, 2318, 1218,  233,  958
1426,  119,  538, 2335, 1147,  118,  534, 2319, 1143
1427,  538,  537, 2336, 2335,  534,  533, 2320, 2319
1428,  537,  536, 2337, 2336,  533,  532, 2321, 2320
1429,  536,  535, 2338, 2337,  532,  531, 2322, 2321
1430,  535,   81, 1223, 2338,  531,   82, 1219, 2322
1431, 1147, 2335, 2339, 1148, 1143, 2319, 2323, 1144
1432, 2335, 2336, 2340, 2339, 2319, 2320, 2324, 2323
1433, 2336, 2337, 2341, 2340, 2320, 2321, 2325, 2324
1434, 2337, 2338, 2342, 2341, 2321, 2322, 2326, 2325
1435, 2338, 1223, 1224, 2342, 2322, 1219, 1220, 2326
1436, 1148, 2339, 2343, 1149, 1144, 2323, 2327, 1145
1437, 2339, 2340, 2344, 2343, 2323, 2324, 2328, 2327
1438, 2340, 2341, 2345, 2344, 2324, 2325, 2329, 2328
1439, 2341, 2342, 2346, 2345, 2325, 2326, 2330, 2329
1440, 2342, 1224, 1225, 2346, 2326, 1220, 1221, 2330
1441, 1149, 2343, 2347, 1150, 1145, 2327, 2331, 1146
1442, 2343, 2344, 2348, 2347, 2327, 2328, 2332, 2331
1443, 2344, 2345, 2349, 2348, 2328, 2329, 2333, 2332
1444, 2345, 2346, 2350, 2349, 2329, 2330, 2334, 2333
1445, 2346, 1225, 1226, 2350, 2330, 1221, 1222, 2334
1446, 1150, 2347,  963,  197, 1146, 2331,  959,  198
1447, 2347, 2348,  964,  963, 2331, 2332,  960,  959
1448, 2348, 2349,  965,  964, 2332, 2333,  961,  960
1449, 2349, 2350,  966,  965, 2333, 2334,  962,  961
1450, 2350, 1226,  235,  966, 2334, 1222,  234,  962
1451,  120,  542, 2351, 1151,  119,  538, 2335, 1147
1452,  542,  541, 2352, 2351,  538,  537, 2336, 2335
1453,  541,  540, 2353, 2352,  537,  536, 2337, 2336
1454,  540,  539, 2354, 2353,  536,  535, 2338, 2337
1455,  539,   80, 1227, 2354,  535,   81, 1223, 2338
1456, 1151, 2351, 2355, 1152, 1147, 2335, 2339, 1148
1457, 2351, 2352, 2356, 2355, 2335, 2336, 2340, 2339
1458, 2352, 2353, 2357, 2356, 2336, 2337, 2341, 2340
1459, 2353, 2354, 2358, 2357, 2337, 2338, 2342, 2341
1460, 2354, 1227, 1228, 2358, 2338, 1223, 1224, 2342
1461, 1152, 2355, 2359, 1153, 1148, 2339, 2343, 1149
1462, 2355, 2356, 2360, 2359, 2339, 2340, 2344, 2343
1463, 2356, 2357, 2361, 2360, 2340, 2341, 2345, 2344
1464, 2357, 2358, 2362, 2361, 2341, 2342, 2346, 2345
1465, 2358, 1228, 1229, 2362, 2342, 1224, 1225, 2346
1466, 1153, 2359, 2363, 1154, 1149, 2343, 2347, 1150
1467, 2359, 2360, 2364, 2363, 2343, 2344, 2348, 2347
1468, 2360, 2361, 2365, 2364, 2344, 2345, 2349, 2348
1469, 2361, 2362, 2366, 2365, 2345, 2346, 2350, 2349
1470, 2362, 1229, 1230, 2366, 2346, 1225, 1226, 2350
1471, 1154, 2363,  967,  196, 1150, 2347,  963,  197
1472, 2363, 2364,  968,  967, 2347, 2348,  964,  963
1473, 2364, 2365,  969,  968, 2348, 2349,  965,  964
1474, 2365, 2366,  970,  969, 2349, 2350,  966,  965
1475, 2366, 1230,  236,  970, 2350, 1226,  235,  966
1476,  121,  546, 2367, 1155,  120,  542, 2351, 1151
1477,  546,  545, 2368, 2367,  542,  541, 2352, 2351
1478,  545,  544, 2369, 2368,  541,  540, 2353, 2352
1479,  544,  543, 2370, 2369,  540,  539, 2354, 2353
1480,  543,   79, 1231, 2370,  539,   80, 1227, 2354
1481, 1155, 2367, 2371, 1156, 1151, 2351, 2355, 1152
1482, 2367, 2368, 2372, 2371, 2351, 2352, 2356, 2355
1483, 2368, 2369, 2373, 2372, 2352, 2353, 2357, 2356
1484, 2369, 2370, 2374, 2373, 2353, 2354, 2358, 2357
1485, 2370, 1231, 1232, 2374, 2354, 1227, 1228, 2358
1486, 1156, 2371, 2375, 1157, 1152, 2355, 2359, 1153
1487, 2371, 2372, 2376, 2375, 2355, 2356, 2360, 2359
1488, 2372, 2373, 2377, 2376, 2356, 2357, 2361, 2360
1489, 2373, 2374, 2378, 2377, 2357, 2358, 2362, 2361
1490, 2374, 1232, 1233, 2378, 2358, 1228, 1229, 2362
1491, 1157, 2375, 2379, 1158, 1153, 2359, 2363, 1154
1492, 2375, 2376, 2380, 2379, 2359, 2360, 2364, 2363
1493, 2376, 2377, 2381, 2380, 2360, 2361, 2365, 2364
1494, 2377, 2378, 2382, 2381, 2361, 2362, 2366, 2365
1495, 2378, 1233, 1234, 2382, 2362, 1229, 1230, 2366
1496, 1158, 2379,  971,  195, 1154, 2363,  967,  196
1497, 2379, 2380,  972,  971, 2363, 2364,  968,  967
1498, 2380, 2381,  973,  972, 2364, 2365,  969,  968
1499, 2381, 2382,  974,  973, 2365, 2366,  970,  969
1500, 2382, 1234,  237,  974, 2366, 1230,  236,  970
1501,  122,  550, 2383, 1159,  121,  546, 2367, 1155
1502,  550,  549, 2384, 2383,  546,  545, 2368, 2367
1503,  549,  548, 2385, 2384,  545,  544, 2369, 2368
1504,  548,  547, 2386, 2385,  544,  543, 2370, 2369
1505,  547,   78, 1235, 2386,  543,   79, 1231, 2370
1506, 1159, 2383, 2387, 1160, 1155, 2367, 2371, 1156
1507, 2383, 2384, 2388, 2387, 2367, 2368, 2372, 2371
1508, 2384, 2385, 2389, 2388, 2368, 2369, 2373, 2372
1509, 2385, 2386, 2390, 2389, 2369, 2370, 2374, 2373
1510, 2386, 1235, 1236, 2390, 2370, 1231, 1232, 2374
1511, 1160, 2387, 2391, 1161, 1156, 2371, 2375, 1157
1512, 2387, 2388, 2392, 2391, 2371, 2372, 2376, 2375
1513, 2388, 2389, 2393, 2392, 2372, 2373, 2377, 2376
1514, 2389, 2390, 2394, 2393, 2373, 2374, 2378, 2377
1515, 2390, 1236, 1237, 2394, 2374, 1232, 1233, 2378
1516, 1161, 2391, 2395, 1162, 1157, 2375, 2379, 1158
1517, 2391, 2392, 2396, 2395, 2375, 2376, 2380, 2379
1518, 2392, 2393, 2397, 2396, 2376, 2377, 2381, 2380
1519, 2393, 2394, 2398, 2397, 2377, 2378, 2382, 2381
1520, 2394, 1237, 1238, 2398, 2378, 1233, 1234, 2382
1521, 1162, 2395,  975,  194, 1158, 2379,  971,  195
1522, 2395, 2396,  976,  975, 2379, 2380,  972,  971
1523, 2396, 2397,  977,  976, 2380, 2381,  973,  972
1524, 2397, 2398,  978,  977, 2381, 2382,  974,  973
1525, 2398, 1238,  238,  978, 2382, 1234,  237,  974
1526,  123,  554, 2399, 1163,  122,  550, 2383, 1159
1527,  554,  553, 2400, 2399,  550,  549, 2384, 2383
1528,  553,  552, 2401, 2400,  549,  548, 2385, 2384
1529,  552,  551, 2402, 2401,  548,  547, 2386, 2385
1530,  551,   77, 1239, 2402,  547,   78, 1235, 2386
1531, 1163, 2399, 2403, 1164, 1159, 2383, 2387, 1160
1532, 2399, 2400, 2404, 2403, 2383, 2384, 2388, 2387
1533, 2400, 2401, 2405, 2404, 2384, 2385, 2389, 2388
1534, 2401, 2402, 2406, 2405, 2385, 2386, 2390, 2389
1535, 2402, 1239, 1240, 2406, 2386, 1235, 1236, 2390
1536, 1164, 2403, 2407, 1165, 1160, 2387, 2391, 1161
1537, 2403, 2404, 2408, 2407, 2387, 2388, 2392, 2391
1538, 2404, 2405, 2409, 2408, 2388, 2389, 2393, 2392
1539, 2405, 2406, 2410, 2409, 2389, 2390, 2394, 2393
1540, 2406, 1240, 1241, 2410, 2390, 1236, 1237, 2394
1541, 1165, 2407, 2411, 1166, 1161, 2391, 2395, 1162
1542, 2407, 2408, 2412, 2411, 2391, 2392, 2396, 2395
1543, 2408, 2409, 2413, 2412, 2392, 2393, 2397, 2396
1544, 2409, 2410, 2414, 2413, 2393, 2394, 2398, 2397
1545, 2410, 1241, 1242, 2414, 2394, 1237, 1238, 2398
1546, 1166, 2411,  979,  193, 1162, 2395,  975,  194
1547, 2411, 2412,  980,  979, 2395, 2396,  976,  975
1548, 2412, 2413,  981,  980, 2396, 2397,  977,  976
1549, 2413, 2414,  982,  981, 2397, 2398,  978,  977
1550, 2414, 1242,  239,  982, 2398, 1238,  238,  978
1551,  124,  558, 2415, 1167,  123,  554, 2399, 1163
1552,  558,  557, 2416, 2415,  554,  553, 2400, 2399
1553,  557,  556, 2417, 2416,  553,  552, 2401, 2400
1554,  556,  555, 2418, 2417,  552,  551, 2402, 2401
1555,  555,   76, 1243, 2418,  551,   77, 1239, 2402
1556, 1167, 2415, 2419, 1168, 1163, 2399, 2403, 1164
1557, 2415, 2416, 2420, 2419, 2399, 2400, 2404, 2403
1558, 2416, 2417, 2421, 2420, 2400, 2401, 2405, 2404
1559, 2417, 2418, 2422, 2421, 2401, 2402, 2406, 2405
1560, 2418, 1243, 1244, 2422, 2402, 1239, 1240, 2406
1561, 1168, 2419, 2423, 1169, 1164, 2403, 2407, 1165
1562, 2419, 2420, 2424, 2423, 2403, 2404, 2408, 2407
1563, 2420, 2421, 2425, 2424, 2404, 2405, 2409, 2408
1564, 2421, 2422, 2426, 2425, 2405, 2406, 2410, 2409
1565, 2422, 1244, 1245, 2426, 2406, 1240, 1241, 2410
1566, 1169, 2423, 2427, 1170, 1165, 2407, 2411, 1166
1567, 2423, 2424, 2428, 2427, 2407, 2408, 2412, 2411
1568, 2424, 2425, 2429, 2428, 2408, 2409, 2413, 2412
1569, 2425, 2426, 2430, 2429, 2409, 2410, 2414, 2413
1570, 2426, 1245, 1246, 2430, 2410, 1241, 1242, 2414
1571, 1170, 2427,  983,  192, 1166, 2411,  979,  193
1572, 2427, 2428,  984,  983, 2411, 2412,  980,  979
1573, 2428, 2429,  985,  984, 2412, 2413,  981,  980
1574, 2429, 2430,  986,  985, 2413, 2414,  982,  981
1575, 2430, 1246,  240,  986, 2414, 1242,  239,  982
1576,  125,  562, 2431, 1171,  124,  558, 2415, 1167
1577,  562,  561, 2432, 2431,  558,  557, 2416, 2415
1578,  561,  560, 2433, 2432,  557,  556, 2417, 2416
1579,  560,  559, 2434, 2433,  556,  555, 2418, 2417
1580,  559,   75, 1247, 2434,  555,   76, 1243, 2418
1581, 1171, 2431, 2435, 1172, 1167, 2415, 2419, 1168
1582, 2431, 2432, 2436, 2435, 2415, 2416, 2420, 2419
1583, 2432, 2433, 2437, 2436, 2416, 2417, 2421, 2420
1584, 2433, 2434, 2438, 2437, 2417, 2418, 2422, 2421
1585, 2434, 1247, 1248, 2438, 2418, 1243, 1244, 2422
1586, 1172, 2435, 2439, 1173, 1168, 2419, 2423, 1169
1587, 2435, 2436, 2440, 2439, 2419, 2420, 2424, 2423
1588, 2436, 2437, 2441, 2440, 2420, 2421, 2425, 2424
1589, 2437, 2438, 2442, 2441, 2421, 2422, 2426, 2425
1590, 2438, 1248, 1249, 2442, 2422, 1244, 1245, 2426
1591, 1173, 2439, 2443, 1174, 1169, 2423, 2427, 1170
1592, 2439, 2440, 2444, 2443, 2423, 2424, 2428, 2427
1593, 2440, 2441, 2445, 2444, 2424, 2425, 2429, 2428
1594, 2441, 2442, 2446, 2445, 2425, 2426, 2430, 2429
1595, 2442, 1249, 1250, 2446, 2426, 1245, 1246, 2430
1596, 1174, 2443,  987,  191, 1170, 2427,  983,  192
1597, 2443, 2444,  988,  987, 2427, 2428,  984,  983
1598, 2444, 2445,  989,  988, 2428, 2429,  985,  984
1599, 2445, 2446,  990,  989, 2429, 2430,  986,  985
1600, 2446, 1250,  241,  990, 2430, 1246,  240,  986
1601,  126,  566, 2447, 1175,  125,  562, 2431, 1171
1602,  566,  565, 2448, 2447,  562,  561, 2432, 2431
1603,  565,  564, 2449, 2448,  561,  560, 2433, 2432
1604,  564,  563, 2450, 2449,  560,  559, 2434, 2433
1605,  563,   74, 1251, 2450,  559,   75, 1247, 2434
1606, 1175, 2447, 2451, 1176, 1171, 2431, 2435, 1172
1607, 2447, 2448, 2452, 2451, 2431, 2432, 2436, 2435
1608, 2448, 2449, 2453, 2452, 2432, 2433, 2437, 2436
1609, 2449, 2450, 2454, 2453, 2433, 2434, 2438, 2437
1610, 2450, 1251, 1252, 2454, 2434, 1247, 1248, 2438
1611, 1176, 2451, 2455, 1177, 1172, 2435, 2439, 1173
1612, 2451, 2452, 2456, 2455, 2435, 2436, 2440, 2439
1613, 2452, 2453, 2457, 2456, 2436, 2437, 2441, 2440
1614, 2453, 2454, 2458, 2457, 2437, 2438, 2442, 2441
1615, 2454, 1252, 1253, 2458, 2438, 1248, 1249, 2442
1616, 1177, 2455, 2459, 1178, 1173, 2439, 2443, 1174
1617, 2455, 2456, 2460, 2459, 2439, 2440, 2444, 2443
1618, 2456, 2457, 2461, 2460, 2440, 2441, 2445, 2444
1619, 2457, 2458, 2462, 2461, 2441, 2442, 2446, 2445
1620, 2458, 1253, 1254, 2462, 2442, 1249, 1250, 2446
1621, 1178, 2459,  991,  190, 1174, 2443,  987,  191
1622, 2459, 2460,  992,  991, 2443, 2444,  988,  987
1623, 2460, 2461,  993,  992, 2444, 2445,  989,  988
1624, 2461, 2462,  994,  993, 2445, 2446,  990,  989
1625, 2462, 1254,  242,  994, 2446, 1250,  241,  990
1626,  127,  570, 2463, 1179,  126,  566, 2447, 1175
1627,  570,  569, 2464, 2463,  566,  565, 2448, 2447
1628,  569,  568, 2465, 2464,  565,  564, 2449, 2448
1629,  568,  567, 2466, 2465,  564,  563, 2450, 2449
1630,  567,   73, 1255, 2466,  563,   74, 1251, 2450
1631, 1179, 2463, 2467, 1180, 1175, 2447, 2451, 1176
1632, 2463, 2464, 2468, 2467, 2447, 2448, 2452, 2451
1633, 2464, 2465, 2469, 2468, 2448, 2449, 2453, 2452
1634, 2465, 2466, 2470, 2469, 2449, 2450, 2454, 2453
1635, 2466, 1255, 1256, 2470, 2450, 1251, 1252, 2454
1636, 1180, 2467, 2471, 1181, 1176, 2451, 2455, 1177
1637, 2467, 2468, 2472, 2471, 2451, 2452, 2456, 2455
1638, 2468, 2469, 2473, 2472, 2452, 2453, 2457, 2456
1639, 2469, 2470, 2474, 2473, 2453, 2454, 2458, 2457
1640, 2470, 1256, 1257, 2474, 2454, 1252, 1253, 2458
1641, 1181, 2471, 2475, 1182, 1177, 2455, 2459, 1178
1642, 2471, 2472, 2476, 2475, 2455, 2456, 2460, 2459
1643, 2472, 2473, 2477, 2476, 2456, 2457, 2461, 2460
1644, 2473, 2474, 2478, 2477, 2457, 2458, 2462, 2461
1645, 2474, 1257, 1258, 2478, 2458, 1253, 1254, 2462
1646, 1182, 2475,  995,  189, 1178, 2459,  991,  190
1647, 2475, 2476,  996,  995, 2459, 2460,  992,  991
1648, 2476, 2477,  997,  996, 2460, 2461,  993,  992
1649, 2477, 2478,  998,  997, 2461, 2462,  994,  993
1650, 2478, 1258,  243,  998, 2462, 1254,  242,  994
1651,  128,  574, 2479, 1183,  127,  570, 2463, 1179
1652,  574,  573, 2480, 2479,  570,  569, 2464, 2463
1653,  573,  572, 2481, 2480,  569,  568, 2465, 2464
1654,  572,  571, 2482, 2481,  568,  567, 2466, 2465
1655,  571,   72, 1259, 2482,  567,   73, 1255, 2466
1656, 1183, 2479, 2483, 1184, 1179, 2463, 2467, 1180
1657, 2479, 2480, 2484, 2483, 2463, 2464, 2468, 2467
1658, 2480, 2481, 2485, 2484, 2464, 2465, 2469, 2468
1659, 2481, 2482, 2486, 2485, 2465, 2466, 2470, 2469
1660, 2482, 1259, 1260, 2486, 2466, 1255, 1256, 2470
1661, 1184, 2483, 2487, 1185, 1180, 2467, 2471, 1181
1662, 2483, 2484, 2488, 2487, 2467, 2468, 2472, 2471
1663, 2484, 2485, 2489, 2488, 2468, 2469, 2473, 2472
1664, 2485, 2486, 2490, 2489, 2469, 2470, 2474, 2473
1665, 2486, 1260, 1261, 2490, 2470, 1256, 1257, 2474
1666, 1185, 2487, 2491, 1186, 1181, 2471, 2475, 1182
1667, 2487, 2488, 2492, 2491, 2471, 2472, 2476, 2475
1668, 2488, 2489, 2493, 2492, 2472, 2473, 2477, 2476
1669, 2489, 2490, 2494, 2493, 2473, 2474, 2478, 2477
1670, 2490, 1261, 1262, 2494, 2474, 1257, 1258, 2478
1671, 1186, 2491,  999,  188, 1182, 2475,  995,  189
1672, 2491, 2492, 1000,  999, 2475, 2476,  996,  995
1673, 2492, 2493, 1001, 1000, 2476, 2477,  997,  996
1674, 2493, 2494, 1002, 1001, 2477, 2478,  998,  997
1675, 2494, 1262,  244, 1002, 2478, 1258,  243,  998
1676,    5,   37, 1095,  257,  128,  574, 2479, 1183
1677,   37,   38, 1096, 1095,  574,  573, 2480, 2479
1678,   38,   39, 1097, 1096,  573,  572, 2481, 2480
1679,   39,   40, 1098, 1097,  572,  571, 2482, 2481
1680,   40,    8,  256, 1098,  571,   72, 1259, 2482
1681,  257, 1095, 1099,  258, 1183, 2479, 2483, 1184
1682, 1095, 1096, 1100, 1099, 2479, 2480, 2484, 2483
1683, 1096, 1097, 1101, 1100, 2480, 2481, 2485, 2484
1684, 1097, 1098, 1102, 1101, 2481, 2482, 2486, 2485
1685, 1098,  256,  255, 1102, 2482, 1259, 1260, 2486
1686,  258, 1099, 1103,  259, 1184, 2483, 2487, 1185
1687, 1099, 1100, 1104, 1103, 2483, 2484, 2488, 2487
1688, 1100, 1101, 1105, 1104, 2484, 2485, 2489, 2488
1689, 1101, 1102, 1106, 1105, 2485, 2486, 2490, 2489
1690, 1102,  255,  254, 1106, 2486, 1260, 1261, 2490
1691,  259, 1103, 1107,  260, 1185, 2487, 2491, 1186
1692, 1103, 1104, 1108, 1107, 2487, 2488, 2492, 2491
1693, 1104, 1105, 1109, 1108, 2488, 2489, 2493, 2492
1694, 1105, 1106, 1110, 1109, 2489, 2490, 2494, 2493
1695, 1106,  254,  253, 1110, 2490, 1261, 1262, 2494
1696,  260, 1107,  152,   16, 1186, 2491,  999,  188
1697, 1107, 1108,  151,  152, 2491, 2492, 1000,  999
1698, 1108, 1109,  150,  151, 2492, 2493, 1001, 1000
1699, 1109, 1110,  149,  150, 2493, 2494, 1002, 1001
1700, 1110,  253,   13,  149, 2494, 1262,  244, 1002
1701,  207, 1078, 2495, 1279,   14,  162, 1263,  268
1702, 1078, 1077, 2496, 2495,  162,  161, 1264, 1263
1703, 1077, 1076, 2497, 2496,  161,  160, 1265, 1264
1704, 1076, 1075, 2498, 2497,  160,  159, 1266, 1265
1705, 1075,  187, 1317, 2498,  159,   15,  261, 1266
1706, 1279, 2495, 2499, 1280,  268, 1263, 1267,  267
1707, 2495, 2496, 2500, 2499, 1263, 1264, 1268, 1267
1708, 2496, 2497, 2501, 2500, 1264, 1265, 1269, 1268
1709, 2497, 2498, 2502, 2501, 1265, 1266, 1270, 1269
1710, 2498, 1317, 1318, 2502, 1266,  261,  262, 1270
1711, 1280, 2499, 1355,  277,  267, 1267,  266,   18
1712, 2499, 2500, 1356, 1355, 1267, 1268,  265,  266
1713, 2500, 2501, 1357, 1356, 1268, 1269,  264,  265
1714, 2501, 2502, 1358, 1357, 1269, 1270,  263,  264
1715, 2502, 1318,  314, 1358, 1270,  262,   17,  263
1716,  208, 1074, 2503, 1281,  207, 1078, 2495, 1279
1717, 1074, 1073, 2504, 2503, 1078, 1077, 2496, 2495
1718, 1073, 1072, 2505, 2504, 1077, 1076, 2497, 2496
1719, 1072, 1071, 2506, 2505, 1076, 1075, 2498, 2497
1720, 1071,  186, 1319, 2506, 1075,  187, 1317, 2498
1721, 1281, 2503, 2507, 1282, 1279, 2495, 2499, 1280
1722, 2503, 2504, 2508, 2507, 2495, 2496, 2500, 2499
1723, 2504, 2505, 2509, 2508, 2496, 2497, 2501, 2500
1724, 2505, 2506, 2510, 2509, 2497, 2498, 2502, 2501
1725, 2506, 1319, 1320, 2510, 2498, 1317, 1318, 2502
1726, 1282, 2507, 1359,  278, 1280, 2499, 1355,  277
1727, 2507, 2508, 1360, 1359, 2499, 2500, 1356, 1355
1728, 2508, 2509, 1361, 1360, 2500, 2501, 1357, 1356
1729, 2509, 2510, 1362, 1361, 2501, 2502, 1358, 1357
1730, 2510, 1320,  313, 1362, 2502, 1318,  314, 1358
1731,  209, 1070, 2511, 1283,  208, 1074, 2503, 1281
1732, 1070, 1069, 2512, 2511, 1074, 1073, 2504, 2503
1733, 1069, 1068, 2513, 2512, 1073, 1072, 2505, 2504
1734, 1068, 1067, 2514, 2513, 1072, 1071, 2506, 2505
1735, 1067,  185, 1321, 2514, 1071,  186, 1319, 2506
1736, 1283, 2511, 2515, 1284, 1281, 2503, 2507, 1282
1737, 2511, 2512, 2516, 2515, 2503, 2504, 2508, 2507
1738, 2512, 2513, 2517, 2516, 2504, 2505, 2509, 2508
1739, 2513, 2514, 2518, 2517, 2505, 2506, 2510, 2509
1740, 2514, 1321, 1322, 2518, 2506, 1319, 1320, 2510
1741, 1284, 2515, 1363,  279, 1282, 2507, 1359,  278
1742, 2515, 2516, 1364, 1363, 2507, 2508, 1360, 1359
1743, 2516, 2517, 1365, 1364, 2508, 2509, 1361, 1360
1744, 2517, 2518, 1366, 1365, 2509, 2510, 1362, 1361
1745, 2518, 1322,  312, 1366, 2510, 1320,  313, 1362
1746,  210, 1066, 2519, 1285,  209, 1070, 2511, 1283
1747, 1066, 1065, 2520, 2519, 1070, 1069, 2512, 2511
1748, 1065, 1064, 2521, 2520, 1069, 1068, 2513, 2512
1749, 1064, 1063, 2522, 2521, 1068, 1067, 2514, 2513
1750, 1063,  184, 1323, 2522, 1067,  185, 1321, 2514
1751, 1285, 2519, 2523, 1286, 1283, 2511, 2515, 1284
1752, 2519, 2520, 2524, 2523, 2511, 2512, 2516, 2515
1753, 2520, 2521, 2525, 2524, 2512, 2513, 2517, 2516
1754, 2521, 2522, 2526, 2525, 2513, 2514, 2518, 2517
1755, 2522, 1323, 1324, 2526, 2514, 1321, 1322, 2518
1756, 1286, 2523, 1367,  280, 1284, 2515, 1363,  279
1757, 2523, 2524, 1368, 1367, 2515, 2516, 1364, 1363
1758, 2524, 2525, 1369, 1368, 2516, 2517, 1365, 1364
1759, 2525, 2526, 1370, 1369, 2517, 2518, 1366, 1365
1760, 2526, 1324,  311, 1370, 2518, 1322,  312, 1366
1761,  211, 1062, 2527, 1287,  210, 1066, 2519, 1285
1762, 1062, 1061, 2528, 2527, 1066, 1065, 2520, 2519
1763, 1061, 1060, 2529, 2528, 1065, 1064, 2521, 2520
1764, 1060, 1059, 2530, 2529, 1064, 1063, 2522, 2521
1765, 1059,  183, 1325, 2530, 1063,  184, 1323, 2522
1766, 1287, 2527, 2531, 1288, 1285, 2519, 2523, 1286
1767, 2527, 2528, 2532, 2531, 2519, 2520, 2524, 2523
1768, 2528, 2529, 2533, 2532, 2520, 2521, 2525, 2524
1769, 2529, 2530, 2534, 2533, 2521, 2522, 2526, 2525
1770, 2530, 1325, 1326, 2534, 2522, 1323, 1324, 2526
1771, 1288, 2531, 1371,  281, 1286, 2523, 1367,  280
1772, 2531, 2532, 1372, 1371, 2523, 2524, 1368, 1367
1773, 2532, 2533, 1373, 1372, 2524, 2525, 1369, 1368
1774, 2533, 2534, 1374, 1373, 2525, 2526, 1370, 1369
1775, 2534, 1326,  310, 1374, 2526, 1324,  311, 1370
1776,  212, 1058, 2535, 1289,  211, 1062, 2527, 1287
1777, 1058, 1057, 2536, 2535, 1062, 1061, 2528, 2527
1778, 1057, 1056, 2537, 2536, 1061, 1060, 2529, 2528
1779, 1056, 1055, 2538, 2537, 1060, 1059, 2530, 2529
1780, 1055,  182, 1327, 2538, 1059,  183, 1325, 2530
1781, 1289, 2535, 2539, 1290, 1287, 2527, 2531, 1288
1782, 2535, 2536, 2540, 2539, 2527, 2528, 2532, 2531
1783, 2536, 2537, 2541, 2540, 2528, 2529, 2533, 2532
1784, 2537, 2538, 2542, 2541, 2529, 2530, 2534, 2533
1785, 2538, 1327, 1328, 2542, 2530, 1325, 1326, 2534
1786, 1290, 2539, 1375,  282, 1288, 2531, 1371,  281
1787, 2539, 2540, 1376, 1375, 2531, 2532, 1372, 1371
1788, 2540, 2541, 1377, 1376, 2532, 2533, 1373, 1372
1789, 2541, 2542, 1378, 1377, 2533, 2534, 1374, 1373
1790, 2542, 1328,  309, 1378, 2534, 1326,  310, 1374
1791,  213, 1054, 2543, 1291,  212, 1058, 2535, 1289
1792, 1054, 1053, 2544, 2543, 1058, 1057, 2536, 2535
1793, 1053, 1052, 2545, 2544, 1057, 1056, 2537, 2536
1794, 1052, 1051, 2546, 2545, 1056, 1055, 2538, 2537
1795, 1051,  181, 1329, 2546, 1055,  182, 1327, 2538
1796, 1291, 2543, 2547, 1292, 1289, 2535, 2539, 1290
1797, 2543, 2544, 2548, 2547, 2535, 2536, 2540, 2539
1798, 2544, 2545, 2549, 2548, 2536, 2537, 2541, 2540
1799, 2545, 2546, 2550, 2549, 2537, 2538, 2542, 2541
1800, 2546, 1329, 1330, 2550, 2538, 1327, 1328, 2542
1801, 1292, 2547, 1379,  283, 1290, 2539, 1375,  282
1802, 2547, 2548, 1380, 1379, 2539, 2540, 1376, 1375
1803, 2548, 2549, 1381, 1380, 2540, 2541, 1377, 1376
1804, 2549, 2550, 1382, 1381, 2541, 2542, 1378, 1377
1805, 2550, 1330,  308, 1382, 2542, 1328,  309, 1378
1806,  214, 1050, 2551, 1293,  213, 1054, 2543, 1291
1807, 1050, 1049, 2552, 2551, 1054, 1053, 2544, 2543
1808, 1049, 1048, 2553, 2552, 1053, 1052, 2545, 2544
1809, 1048, 1047, 2554, 2553, 1052, 1051, 2546, 2545
1810, 1047,  180, 1331, 2554, 1051,  181, 1329, 2546
1811, 1293, 2551, 2555, 1294, 1291, 2543, 2547, 1292
1812, 2551, 2552, 2556, 2555, 2543, 2544, 2548, 2547
1813, 2552, 2553, 2557, 2556, 2544, 2545, 2549, 2548
1814, 2553, 2554, 2558, 2557, 2545, 2546, 2550, 2549
1815, 2554, 1331, 1332, 2558, 2546, 1329, 1330, 2550
1816, 1294, 2555, 1383,  284, 1292, 2547, 1379,  283
1817, 2555, 2556, 1384, 1383, 2547, 2548, 1380, 1379
1818, 2556, 2557, 1385, 1384, 2548, 2549, 1381, 1380
1819, 2557, 2558, 1386, 1385, 2549, 2550, 1382, 1381
1820, 2558, 1332,  307, 1386, 2550, 1330,  308, 1382
1821,  215, 1046, 2559, 1295,  214, 1050, 2551, 1293
1822, 1046, 1045, 2560, 2559, 1050, 1049, 2552, 2551
1823, 1045, 1044, 2561, 2560, 1049, 1048, 2553, 2552
1824, 1044, 1043, 2562, 2561, 1048, 1047, 2554, 2553
1825, 1043,  179, 1333, 2562, 1047,  180, 1331, 2554
1826, 1295, 2559, 2563, 1296, 1293, 2551, 2555, 1294
1827, 2559, 2560, 2564, 2563, 2551, 2552, 2556, 2555
1828, 2560, 2561, 2565, 2564, 2552, 2553, 2557, 2556
1829, 2561, 2562, 2566, 2565, 2553, 2554, 2558, 2557
1830, 2562, 1333, 1334, 2566, 2554, 1331, 1332, 2558
1831, 1296, 2563, 1387,  285, 1294, 2555, 1383,  284
1832, 2563, 2564, 1388, 1387, 2555, 2556, 1384, 1383
1833, 2564, 2565, 1389, 1388, 2556, 2557, 1385, 1384
1834, 2565, 2566, 1390, 1389, 2557, 2558, 1386, 1385
1835, 2566, 1334,  306, 1390, 2558, 1332,  307, 1386
1836,  216, 1042, 2567, 1297,  215, 1046, 2559, 1295
1837, 1042, 1041, 2568, 2567, 1046, 1045, 2560, 2559
1838, 1041, 1040, 2569, 2568, 1045, 1044, 2561, 2560
1839, 1040, 1039, 2570, 2569, 1044, 1043, 2562, 2561
1840, 1039,  178, 1335, 2570, 1043,  179, 1333, 2562
1841, 1297, 2567, 2571, 1298, 1295, 2559, 2563, 1296
1842, 2567, 2568, 2572, 2571, 2559, 2560, 2564, 2563
1843, 2568, 2569, 2573, 2572, 2560, 2561, 2565, 2564
1844, 2569, 2570, 2574, 2573, 2561, 2562, 2566, 2565
1845, 2570, 1335, 1336, 2574, 2562, 1333, 1334, 2566
1846, 1298, 2571, 1391,  286, 1296, 2563, 1387,  285
1847, 2571, 2572, 1392, 1391, 2563, 2564, 1388, 1387
1848, 2572, 2573, 1393, 1392, 2564, 2565, 1389, 1388
1849, 2573, 2574, 1394, 1393, 2565, 2566, 1390, 1389
1850, 2574, 1336,  305, 1394, 2566, 1334,  306, 1390
1851,  217, 1038, 2575, 1299,  216, 1042, 2567, 1297
1852, 1038, 1037, 2576, 2575, 1042, 1041, 2568, 2567
1853, 1037, 1036, 2577, 2576, 1041, 1040, 2569, 2568
1854, 1036, 1035, 2578, 2577, 1040, 1039, 2570, 2569
1855, 1035,  177, 1337, 2578, 1039,  178, 1335, 2570
1856, 1299, 2575, 2579, 1300, 1297, 2567, 2571, 1298
1857, 2575, 2576, 2580, 2579, 2567, 2568, 2572, 2571
1858, 2576, 2577, 2581, 2580, 2568, 2569, 2573, 2572
1859, 2577, 2578, 2582, 2581, 2569, 2570, 2574, 2573
1860, 2578, 1337, 1338, 2582, 2570, 1335, 1336, 2574
1861, 1300, 2579, 1395,  287, 1298, 2571, 1391,  286
1862, 2579, 2580, 1396, 1395, 2571, 2572, 1392, 1391
1863, 2580, 2581, 1397, 1396, 2572, 2573, 1393, 1392
1864, 2581, 2582, 1398, 1397, 2573, 2574, 1394, 1393
1865, 2582, 1338,  304, 1398, 2574, 1336,  305, 1394
1866,  218, 1034, 2583, 1301,  217, 1038, 2575, 1299
1867, 1034, 1033, 2584, 2583, 1038, 1037, 2576, 2575
1868, 1033, 1032, 2585, 2584, 1037, 1036, 2577, 2576
1869, 1032, 1031, 2586, 2585, 1036, 1035, 2578, 2577
1870, 1031,  176, 1339, 2586, 1035,  177, 1337, 2578
1871, 1301, 2583, 2587, 1302, 1299, 2575, 2579, 1300
1872, 2583, 2584, 2588, 2587, 2575, 2576, 2580, 2579
1873, 2584, 2585, 2589, 2588, 2576, 2577, 2581, 2580
1874, 2585, 2586, 2590, 2589, 2577, 2578, 2582, 2581
1875, 2586, 1339, 1340, 2590, 2578, 1337, 1338, 2582
1876, 1302, 2587, 1399,  288, 1300, 2579, 1395,  287
1877, 2587, 2588, 1400, 1399, 2579, 2580, 1396, 1395
1878, 2588, 2589, 1401, 1400, 2580, 2581, 1397, 1396
1879, 2589, 2590, 1402, 1401, 2581, 2582, 1398, 1397
1880, 2590, 1340,  303, 1402, 2582, 1338,  304, 1398
1881,  219, 1030, 2591, 1303,  218, 1034, 2583, 1301
1882, 1030, 1029, 2592, 2591, 1034, 1033, 2584, 2583
1883, 1029, 1028, 2593, 2592, 1033, 1032, 2585, 2584
1884, 1028, 1027, 2594, 2593, 1032, 1031, 2586, 2585
1885, 1027,  175, 1341, 2594, 1031,  176, 1339, 2586
1886, 1303, 2591, 2595, 1304, 1301, 2583, 2587, 1302
1887, 2591, 2592, 2596, 2595, 2583, 2584, 2588, 2587
1888, 2592, 2593, 2597, 2596, 2584, 2585, 2589, 2588
1889, 2593, 2594, 2598, 2597, 2585, 2586, 2590, 2589
1890, 2594, 1341, 1342, 2598, 2586, 1339, 1340, 2590
1891, 1304, 2595, 1403,  289, 1302, 2587, 1399,  288
1892, 2595, 2596, 1404, 1403, 2587, 2588, 1400, 1399
1893, 2596, 2597, 1405, 1404, 2588, 2589, 1401, 1400
1894, 2597, 2598, 1406, 1405, 2589, 2590, 1402, 1401
1895, 2598, 1342,  302, 1406, 2590, 1340,  303, 1402
1896,  220, 1026, 2599, 1305,  219, 1030, 2591, 1303
1897, 1026, 1025, 2600, 2599, 1030, 1029, 2592, 2591
1898, 1025, 1024, 2601, 2600, 1029, 1028, 2593, 2592
1899, 1024, 1023, 2602, 2601, 1028, 1027, 2594, 2593
1900, 1023,  174, 1343, 2602, 1027,  175, 1341, 2594
1901, 1305, 2599, 2603, 1306, 1303, 2591, 2595, 1304
1902, 2599, 2600, 2604, 2603, 2591, 2592, 2596, 2595
1903, 2600, 2601, 2605, 2604, 2592, 2593, 2597, 2596
1904, 2601, 2602, 2606, 2605, 2593, 2594, 2598, 2597
1905, 2602, 1343, 1344, 2606, 2594, 1341, 1342, 2598
1906, 1306, 2603, 1407,  290, 1304, 2595, 1403,  289
1907, 2603, 2604, 1408, 1407, 2595, 2596, 1404, 1403
1908, 2604, 2605, 1409, 1408, 2596, 2597, 1405, 1404
1909, 2605, 2606, 1410, 1409, 2597, 2598, 1406, 1405
1910, 2606, 1344,  301, 1410, 2598, 1342,  302, 1406
1911,  221, 1022, 2607, 1307,  220, 1026, 2599, 1305
1912, 1022, 1021, 2608, 2607, 1026, 1025, 2600, 2599
1913, 1021, 1020, 2609, 2608, 1025, 1024, 2601, 2600
1914, 1020, 1019, 2610, 2609, 1024, 1023, 2602, 2601
1915, 1019,  173, 1345, 2610, 1023,  174, 1343, 2602
1916, 1307, 2607, 2611, 1308, 1305, 2599, 2603, 1306
1917, 2607, 2608, 2612, 2611, 2599, 2600, 2604, 2603
1918, 2608, 2609, 2613, 2612, 2600, 2601, 2605, 2604
1919, 2609, 2610, 2614, 2613, 2601, 2602, 2606, 2605
1920, 2610, 1345, 1346, 2614, 2602, 1343, 1344, 2606
1921, 1308, 2611, 1411,  291, 1306, 2603, 1407,  290
1922, 2611, 2612, 1412, 1411, 2603, 2604, 1408, 1407
1923, 2612, 2613, 1413, 1412, 2604, 2605, 1409, 1408
1924, 2613, 2614, 1414, 1413, 2605, 2606, 1410, 1409
1925, 2614, 1346,  300, 1414, 2606, 1344,  301, 1410
1926,  222, 1018, 2615, 1309,  221, 1022, 2607, 1307
1927, 1018, 1017, 2616, 2615, 1022, 1021, 2608, 2607
1928, 1017, 1016, 2617, 2616, 1021, 1020, 2609, 2608
1929, 1016, 1015, 2618, 2617, 1020, 1019, 2610, 2609
1930, 1015,  172, 1347, 2618, 1019,  173, 1345, 2610
1931, 1309, 2615, 2619, 1310, 1307, 2607, 2611, 1308
1932, 2615, 2616, 2620, 2619, 2607, 2608, 2612, 2611
1933, 2616, 2617, 2621, 2620, 2608, 2609, 2613, 2612
1934, 2617, 2618, 2622, 2621, 2609, 2610, 2614, 2613
1935, 2618, 1347, 1348, 2622, 2610, 1345, 1346, 2614
1936, 1310, 2619, 1415,  292, 1308, 2611, 1411,  291
1937, 2619, 2620, 1416, 1415, 2611, 2612, 1412, 1411
1938, 2620, 2621, 1417, 1416, 2612, 2613, 1413, 1412
1939, 2621, 2622, 1418, 1417, 2613, 2614, 1414, 1413
1940, 2622, 1348,  299, 1418, 2614, 1346,  300, 1414
1941,  223, 1014, 2623, 1311,  222, 1018, 2615, 1309
1942, 1014, 1013, 2624, 2623, 1018, 1017, 2616, 2615
1943, 1013, 1012, 2625, 2624, 1017, 1016, 2617, 2616
1944, 1012, 1011, 2626, 2625, 1016, 1015, 2618, 2617
1945, 1011,  171, 1349, 2626, 1015,  172, 1347, 2618
1946, 1311, 2623, 2627, 1312, 1309, 2615, 2619, 1310
1947, 2623, 2624, 2628, 2627, 2615, 2616, 2620, 2619
1948, 2624, 2625, 2629, 2628, 2616, 2617, 2621, 2620
1949, 2625, 2626, 2630, 2629, 2617, 2618, 2622, 2621
1950, 2626, 1349, 1350, 2630, 2618, 1347, 1348, 2622
1951, 1312, 2627, 1419,  293, 1310, 2619, 1415,  292
1952, 2627, 2628, 1420, 1419, 2619, 2620, 1416, 1415
1953, 2628, 2629, 1421, 1420, 2620, 2621, 1417, 1416
1954, 2629, 2630, 1422, 1421, 2621, 2622, 1418, 1417
1955, 2630, 1350,  298, 1422, 2622, 1348,  299, 1418
1956,  224, 1010, 2631, 1313,  223, 1014, 2623, 1311
1957, 1010, 1009, 2632, 2631, 1014, 1013, 2624, 2623
1958, 1009, 1008, 2633, 2632, 1013, 1012, 2625, 2624
1959, 1008, 1007, 2634, 2633, 1012, 1011, 2626, 2625
1960, 1007,  170, 1351, 2634, 1011,  171, 1349, 2626
1961, 1313, 2631, 2635, 1314, 1311, 2623, 2627, 1312
1962, 2631, 2632, 2636, 2635, 2623, 2624, 2628, 2627
1963, 2632, 2633, 2637, 2636, 2624, 2625, 2629, 2628
1964, 2633, 2634, 2638, 2637, 2625, 2626, 2630, 2629
1965, 2634, 1351, 1352, 2638, 2626, 1349, 1350, 2630
1966, 1314, 2635, 1423,  294, 1312, 2627, 1419,  293
1967, 2635, 2636, 1424, 1423, 2627, 2628, 1420, 1419
1968, 2636, 2637, 1425, 1424, 2628, 2629, 1421, 1420
1969, 2637, 2638, 1426, 1425, 2629, 2630, 1422, 1421
1970, 2638, 1352,  297, 1426, 2630, 1350,  298, 1422
1971,  225, 1006, 2639, 1315,  224, 1010, 2631, 1313
1972, 1006, 1005, 2640, 2639, 1010, 1009, 2632, 2631
1973, 1005, 1004, 2641, 2640, 1009, 1008, 2633, 2632
1974, 1004, 1003, 2642, 2641, 1008, 1007, 2634, 2633
1975, 1003,  169, 1353, 2642, 1007,  170, 1351, 2634
1976, 1315, 2639, 2643, 1316, 1313, 2631, 2635, 1314
1977, 2639, 2640, 2644, 2643, 2631, 2632, 2636, 2635
1978, 2640, 2641, 2645, 2644, 2632, 2633, 2637, 2636
1979, 2641, 2642, 2646, 2645, 2633, 2634, 2638, 2637
1980, 2642, 1353, 1354, 2646, 2634, 1351, 1352, 2638
1981, 1316, 2643, 1427,  295, 1314, 2635, 1423,  294
1982, 2643, 2644, 1428, 1427, 2635, 2636, 1424, 1423
1983, 2644, 2645, 1429, 1428, 2636, 2637, 1425, 1424
1984, 2645, 2646, 1430, 1429, 2637, 2638, 1426, 1425
1985, 2646, 1354,  296, 1430, 2638, 1352,  297, 1426
1986,   11,  139, 1271,  275,  225, 1006, 2639, 1315
1987,  139,  140, 1272, 1271, 1006, 1005, 2640, 2639
1988,  140,  141, 1273, 1272, 1005, 1004, 2641, 2640
1989,  141,  142, 1274, 1273, 1004, 1003, 2642, 2641
1990,  142,   12,  270, 1274, 1003,  169, 1353, 2642
1991,  275, 1271, 1275,  276, 1315, 2639, 2643, 1316
1992, 1271, 1272, 1276, 1275, 2639, 2640, 2644, 2643
1993, 1272, 1273, 1277, 1276, 2640, 2641, 2645, 2644
1994, 1273, 1274, 1278, 1277, 2641, 2642, 2646, 2645
1995, 1274,  270,  269, 1278, 2642, 1353, 1354, 2646
1996,  276, 1275,  271,   20, 1316, 2643, 1427,  295
1997, 1275, 1276,  272,  271, 2643, 2644, 1428, 1427
1998, 1276, 1277,  273,  272, 2644, 2645, 1429, 1428
1999, 1277, 1278,  274,  273, 2645, 2646, 1430, 1429
2000, 1278,  269,   19,  274, 2646, 1354,  296, 1430
*Nset, nset=_PickedSet8, internal, generate
    1,  2646,     1
*Elset, elset=_PickedSet8, internal, generate
    1,  2000,     1
*Nset, nset=XSymFace
    5,    6,    7,    8,   13,   14,   15,   16,   17,   18,   37,   38,   39,   40,   41,   42
   43,   44,   45,   46,   47,   48,   49,   50,   51,   52,  149,  150,  151,  152,  153,  154
  155,  156,  157,  158,  159,  160,  161,  162,  163,  164,  165,  166,  167,  168,  253,  254
  255,  256,  257,  258,  259,  260,  261,  262,  263,  264,  265,  266,  267,  268,  331,  332
  333,  334,  335,  336,  337,  338,  339,  340,  341,  342,  343,  344,  345,  346,  675,  676
  677,  678,  679,  680,  681,  682,  683,  684,  685,  686,  687,  688,  689,  690,  691,  692
  693,  694,  695,  696,  697,  698, 1095, 1096, 1097, 1098, 1099, 1100, 1101, 1102, 1103, 1104
 1105, 1106, 1107, 1108, 1109, 1110, 1263, 1264, 1265, 1266, 1267, 1268, 1269, 1270
*Elset, elset=XSymFace
  476,  477,  478,  479,  480,  481,  482,  483,  484,  485,  486,  487,  488,  489,  490,  491
  492,  493,  494,  495,  496,  497,  498,  499,  500, 1166, 1167, 1168, 1169, 1170, 1171, 1172
 1173, 1174, 1175, 1176, 1177, 1178, 1179, 1180, 1181, 1182, 1183, 1184, 1185, 1186, 1187, 1188
 1189, 1190, 1191, 1192, 1193, 1194, 1195, 1196, 1197, 1198, 1199, 1200, 1676, 1677, 1678, 1679
 1680, 1681, 1682, 1683, 1684, 1685, 1686, 1687, 1688, 1689, 1690, 1691, 1692, 1693, 1694, 1695
 1696, 1697, 1698, 1699, 1700, 1701, 1702, 1703, 1704, 1705, 1706, 1707, 1708, 1709, 1710, 1711
 1712, 1713, 1714, 1715
*Nset, nset=ZSymFace
   17,   18,   19,   20,  263,  264,  265,  266,  271,  272,  273,  274,  277,  278,  279,  280
  281,  282,  283,  284,  285,  286,  287,  288,  289,  290,  291,  292,  293,  294,  295,  296
  297,  298,  299,  300,  301,  302,  303,  304,  305,  306,  307,  308,  309,  310,  311,  312
  313,  314, 1355, 1356, 1357, 1358, 1359, 1360, 1361, 1362, 1363, 1364, 1365, 1366, 1367, 1368
 1369, 1370, 1371, 1372, 1373, 1374, 1375, 1376, 1377, 1378, 1379, 1380, 1381, 1382, 1383, 1384
 1385, 1386, 1387, 1388, 1389, 1390, 1391, 1392, 1393, 1394, 1395, 1396, 1397, 1398, 1399, 1400
 1401, 1402, 1403, 1404, 1405, 1406, 1407, 1408, 1409, 1410, 1411, 1412, 1413, 1414, 1415, 1416
 1417, 1418, 1419, 1420, 1421, 1422, 1423, 1424, 1425, 1426, 1427, 1428, 1429, 1430
*Elset, elset=ZSymFace
 1711, 1712, 1713, 1714, 1715, 1726, 1727, 1728, 1729, 1730, 1741, 1742, 1743, 1744, 1745, 1756
 1757, 1758, 1759, 1760, 1771, 1772, 1773, 1774, 1775, 1786, 1787, 1788, 1789, 1790, 1801, 1802
 1803, 1804, 1805, 1816, 1817, 1818, 1819, 1820, 1831, 1832, 1833, 1834, 1835, 1846, 1847, 1848
 1849, 1850, 1861, 1862, 1863, 1864, 1865, 1876, 1877, 1878, 1879, 1880, 1891, 1892, 1893, 1894
 1895, 1906, 1907, 1908, 1909, 1910, 1921, 1922, 1923, 1924, 1925, 1936, 1937, 1938, 1939, 1940
 1951, 1952, 1953, 1954, 1955, 1966, 1967, 1968, 1969, 1970, 1981, 1982, 1983, 1984, 1985, 1996
 1997, 1998, 1999, 2000
*Elset, elset=_Top_S4, internal
    5,   10,   15,   20,   25,   30,   35,   40,   45,   50,   55,   60,   65,   70,   75,   80
   85,   90,   95,  100,  105,  110,  115,  120,  125,  130,  135,  140,  145,  150,  155,  160
  165,  170,  175,  180,  185,  190,  195,  200,  205,  210,  215,  220,  225,  230,  235,  240
  245,  250,  255,  260,  265,  270,  275,  280,  285,  290,  295,  300,  305,  310,  315,  320
  325,  330,  335,  340,  345,  350,  355,  360,  365,  370,  375,  380,  385,  390,  395,  400
  405,  410,  415,  420,  425,  430,  435,  440,  445,  450,  455,  460,  465,  470,  475,  480
  485,  490,  495,  500, 1705, 1710, 1715, 1720, 1725, 1730, 1735, 1740, 1745, 1750, 1755, 1760
 1765, 1770, 1775, 1780, 1785, 1790, 1795, 1800, 1805, 1810, 1815, 1820, 1825, 1830, 1835, 1840
 1845, 1850, 1855, 1860, 1865, 1870, 1875, 1880, 1885, 1890, 1895, 1900, 1905, 1910, 1915, 1920
 1925, 1930, 1935, 1940, 1945, 1950, 1955, 1960, 1965, 1970, 1975, 1980, 1985, 1990, 1995, 2000
*Elset, elset=_Top_S6, internal, generate
  501,  1696,     5
*Surface, type=ELEMENT, name=Top
_Top_S4, S4
_Top_S6, S6
*Elset, elset=_Bottom_S4, internal, generate
  505,  1700,     5
*Elset, elset=_Bottom_S6, internal
    1,    6,   11,   16,   21,   26,   31,   36,   41,   46,   51,   56,   61,   66,   71,   76
   81,   86,   91,   96,  101,  106,  111,  116,  121,  126,  131,  136,  141,  146,  151,  156
  161,  166,  171,  176,  181,  186,  191,  196,  201,  206,  211,  216,  221,  226,  231,  236
  241,  246,  251,  256,  261,  266,  271,  276,  281,  286,  291,  296,  301,  306,  311,  316
  321,  326,  331,  336,  341,  346,  351,  356,  361,  366,  371,  376,  381,  386,  391,  396
  401,  406,  411,  416,  421,  426,  431,  436,  441,  446,  451,  456,  461,  466,  471,  476
  481,  486,  491,  496, 1701, 1706, 1711, 1716, 1721, 1726, 1731, 1736, 1741, 1746, 1751, 1756
 1761, 1766, 1771, 1776, 1781, 1786, 1791, 1796, 1801, 1806, 1811, 1816, 1821, 1826, 1831, 1836
 1841, 1846, 1851, 1856, 1861, 1866, 1871, 1876, 1881, 1886, 1891, 1896, 1901, 1906, 1911, 1916
 1921, 1926, 1931, 1936, 1941, 1946, 1951, 1956, 1961, 1966, 1971, 1976, 1981, 1986, 1991, 1996
*Surface, type=ELEMENT, name=Bottom
_Bottom_S4, S4
_Bottom_S6, S6
** Section: Sec_ActiveLayer
*Solid Section, elset=_PickedSet8, material=ActiveLayer_Porous_Calibratable
,
*End Part
**  
*Part, name=RigidRoller_CylindricalShell
*Node
      1,   49.7592354,  -4.90085697,          70.
      2,   49.0392647,  -9.75451565,          70.
      3,   47.8470154,  -14.5142336,          70.
      4,   46.1939774,  -19.1341724,          70.
      5,   44.0960617,  -23.5698376,          70.
      6,   41.5734825,   -27.778511,          70.
      7,   38.6505241,  -31.7196636,          70.
      8,   35.3553391,  -35.3553391,          70.
      9,   31.7196636,  -38.6505241,          70.
     10,    27.778511,  -41.5734825,          70.
     11,   23.5698376,  -44.0960617,          70.
     12,   19.1341724,  -46.1939774,          70.
     13,   14.5142336,  -47.8470154,          70.
     14,   9.75451565,  -49.0392647,          70.
     15,   4.90085697,  -49.7592354,          70.
     16,           0.,         -50.,          70.
     17,  -4.90085697,  -49.7592354,          70.
     18,  -9.75451565,  -49.0392647,          70.
     19,  -14.5142336,  -47.8470154,          70.
     20,  -19.1341724,  -46.1939774,          70.
     21,  -23.5698376,  -44.0960617,          70.
     22,   -27.778511,  -41.5734825,          70.
     23,  -31.7196636,  -38.6505241,          70.
     24,  -35.3553391,  -35.3553391,          70.
     25,  -38.6505241,  -31.7196636,          70.
     26,  -41.5734825,   -27.778511,          70.
     27,  -44.0960617,  -23.5698376,          70.
     28,  -46.1939774,  -19.1341724,          70.
     29,  -47.8470154,  -14.5142336,          70.
     30,  -49.0392647,  -9.75451565,          70.
     31,  -49.7592354,  -4.90085697,          70.
     32,         -50.,           0.,          70.
     33,  -49.7592354,   4.90085697,          70.
     34,  -49.0392647,   9.75451565,          70.
     35,  -47.8470154,   14.5142336,          70.
     36,  -46.1939774,   19.1341724,          70.
     37,  -44.0960617,   23.5698376,          70.
     38,  -41.5734825,    27.778511,          70.
     39,  -38.6505241,   31.7196636,          70.
     40,  -35.3553391,   35.3553391,          70.
     41,  -31.7196636,   38.6505241,          70.
     42,   -27.778511,   41.5734825,          70.
     43,  -23.5698376,   44.0960617,          70.
     44,  -19.1341724,   46.1939774,          70.
     45,  -14.5142336,   47.8470154,          70.
     46,  -9.75451565,   49.0392647,          70.
     47,  -4.90085697,   49.7592354,          70.
     48,           0.,          50.,          70.
     49,   4.90085697,   49.7592354,          70.
     50,   9.75451565,   49.0392647,          70.
     51,   14.5142336,   47.8470154,          70.
     52,   19.1341724,   46.1939774,          70.
     53,   23.5698376,   44.0960617,          70.
     54,    27.778511,   41.5734825,          70.
     55,   31.7196636,   38.6505241,          70.
     56,   35.3553391,   35.3553391,          70.
     57,   38.6505241,   31.7196636,          70.
     58,   41.5734825,    27.778511,          70.
     59,   44.0960617,   23.5698376,          70.
     60,   46.1939774,   19.1341724,          70.
     61,   47.8470154,   14.5142336,          70.
     62,   49.0392647,   9.75451565,          70.
     63,   49.7592354,   4.90085697,          70.
     64,          50.,           0.,          70.
     65,   49.7592354,  -4.90085697,          65.
     66,   49.0392647,  -9.75451565,          65.
     67,   47.8470154,  -14.5142336,          65.
     68,   46.1939774,  -19.1341724,          65.
     69,   44.0960617,  -23.5698376,          65.
     70,   41.5734825,   -27.778511,          65.
     71,   38.6505241,  -31.7196636,          65.
     72,   35.3553391,  -35.3553391,          65.
     73,   31.7196636,  -38.6505241,          65.
     74,    27.778511,  -41.5734825,          65.
     75,   23.5698376,  -44.0960617,          65.
     76,   19.1341724,  -46.1939774,          65.
     77,   14.5142336,  -47.8470154,          65.
     78,   9.75451565,  -49.0392647,          65.
     79,   4.90085697,  -49.7592354,          65.
     80,           0.,         -50.,          65.
     81,  -4.90085697,  -49.7592354,          65.
     82,  -9.75451565,  -49.0392647,          65.
     83,  -14.5142336,  -47.8470154,          65.
     84,  -19.1341724,  -46.1939774,          65.
     85,  -23.5698376,  -44.0960617,          65.
     86,   -27.778511,  -41.5734825,          65.
     87,  -31.7196636,  -38.6505241,          65.
     88,  -35.3553391,  -35.3553391,          65.
     89,  -38.6505241,  -31.7196636,          65.
     90,  -41.5734825,   -27.778511,          65.
     91,  -44.0960617,  -23.5698376,          65.
     92,  -46.1939774,  -19.1341724,          65.
     93,  -47.8470154,  -14.5142336,          65.
     94,  -49.0392647,  -9.75451565,          65.
     95,  -49.7592354,  -4.90085697,          65.
     96,         -50.,           0.,          65.
     97,  -49.7592354,   4.90085697,          65.
     98,  -49.0392647,   9.75451565,          65.
     99,  -47.8470154,   14.5142336,          65.
    100,  -46.1939774,   19.1341724,          65.
    101,  -44.0960617,   23.5698376,          65.
    102,  -41.5734825,    27.778511,          65.
    103,  -38.6505241,   31.7196636,          65.
    104,  -35.3553391,   35.3553391,          65.
    105,  -31.7196636,   38.6505241,          65.
    106,   -27.778511,   41.5734825,          65.
    107,  -23.5698376,   44.0960617,          65.
    108,  -19.1341724,   46.1939774,          65.
    109,  -14.5142336,   47.8470154,          65.
    110,  -9.75451565,   49.0392647,          65.
    111,  -4.90085697,   49.7592354,          65.
    112,           0.,          50.,          65.
    113,   4.90085697,   49.7592354,          65.
    114,   9.75451565,   49.0392647,          65.
    115,   14.5142336,   47.8470154,          65.
    116,   19.1341724,   46.1939774,          65.
    117,   23.5698376,   44.0960617,          65.
    118,    27.778511,   41.5734825,          65.
    119,   31.7196636,   38.6505241,          65.
    120,   35.3553391,   35.3553391,          65.
    121,   38.6505241,   31.7196636,          65.
    122,   41.5734825,    27.778511,          65.
    123,   44.0960617,   23.5698376,          65.
    124,   46.1939774,   19.1341724,          65.
    125,   47.8470154,   14.5142336,          65.
    126,   49.0392647,   9.75451565,          65.
    127,   49.7592354,   4.90085697,          65.
    128,          50.,           0.,          65.
    129,   49.7592354,  -4.90085697,          60.
    130,   49.0392647,  -9.75451565,          60.
    131,   47.8470154,  -14.5142336,          60.
    132,   46.1939774,  -19.1341724,          60.
    133,   44.0960617,  -23.5698376,          60.
    134,   41.5734825,   -27.778511,          60.
    135,   38.6505241,  -31.7196636,          60.
    136,   35.3553391,  -35.3553391,          60.
    137,   31.7196636,  -38.6505241,          60.
    138,    27.778511,  -41.5734825,          60.
    139,   23.5698376,  -44.0960617,          60.
    140,   19.1341724,  -46.1939774,          60.
    141,   14.5142336,  -47.8470154,          60.
    142,   9.75451565,  -49.0392647,          60.
    143,   4.90085697,  -49.7592354,          60.
    144,           0.,         -50.,          60.
    145,  -4.90085697,  -49.7592354,          60.
    146,  -9.75451565,  -49.0392647,          60.
    147,  -14.5142336,  -47.8470154,          60.
    148,  -19.1341724,  -46.1939774,          60.
    149,  -23.5698376,  -44.0960617,          60.
    150,   -27.778511,  -41.5734825,          60.
    151,  -31.7196636,  -38.6505241,          60.
    152,  -35.3553391,  -35.3553391,          60.
    153,  -38.6505241,  -31.7196636,          60.
    154,  -41.5734825,   -27.778511,          60.
    155,  -44.0960617,  -23.5698376,          60.
    156,  -46.1939774,  -19.1341724,          60.
    157,  -47.8470154,  -14.5142336,          60.
    158,  -49.0392647,  -9.75451565,          60.
    159,  -49.7592354,  -4.90085697,          60.
    160,         -50.,           0.,          60.
    161,  -49.7592354,   4.90085697,          60.
    162,  -49.0392647,   9.75451565,          60.
    163,  -47.8470154,   14.5142336,          60.
    164,  -46.1939774,   19.1341724,          60.
    165,  -44.0960617,   23.5698376,          60.
    166,  -41.5734825,    27.778511,          60.
    167,  -38.6505241,   31.7196636,          60.
    168,  -35.3553391,   35.3553391,          60.
    169,  -31.7196636,   38.6505241,          60.
    170,   -27.778511,   41.5734825,          60.
    171,  -23.5698376,   44.0960617,          60.
    172,  -19.1341724,   46.1939774,          60.
    173,  -14.5142336,   47.8470154,          60.
    174,  -9.75451565,   49.0392647,          60.
    175,  -4.90085697,   49.7592354,          60.
    176,           0.,          50.,          60.
    177,   4.90085697,   49.7592354,          60.
    178,   9.75451565,   49.0392647,          60.
    179,   14.5142336,   47.8470154,          60.
    180,   19.1341724,   46.1939774,          60.
    181,   23.5698376,   44.0960617,          60.
    182,    27.778511,   41.5734825,          60.
    183,   31.7196636,   38.6505241,          60.
    184,   35.3553391,   35.3553391,          60.
    185,   38.6505241,   31.7196636,          60.
    186,   41.5734825,    27.778511,          60.
    187,   44.0960617,   23.5698376,          60.
    188,   46.1939774,   19.1341724,          60.
    189,   47.8470154,   14.5142336,          60.
    190,   49.0392647,   9.75451565,          60.
    191,   49.7592354,   4.90085697,          60.
    192,          50.,           0.,          60.
    193,   49.7592354,  -4.90085697,          55.
    194,   49.0392647,  -9.75451565,          55.
    195,   47.8470154,  -14.5142336,          55.
    196,   46.1939774,  -19.1341724,          55.
    197,   44.0960617,  -23.5698376,          55.
    198,   41.5734825,   -27.778511,          55.
    199,   38.6505241,  -31.7196636,          55.
    200,   35.3553391,  -35.3553391,          55.
    201,   31.7196636,  -38.6505241,          55.
    202,    27.778511,  -41.5734825,          55.
    203,   23.5698376,  -44.0960617,          55.
    204,   19.1341724,  -46.1939774,          55.
    205,   14.5142336,  -47.8470154,          55.
    206,   9.75451565,  -49.0392647,          55.
    207,   4.90085697,  -49.7592354,          55.
    208,           0.,         -50.,          55.
    209,  -4.90085697,  -49.7592354,          55.
    210,  -9.75451565,  -49.0392647,          55.
    211,  -14.5142336,  -47.8470154,          55.
    212,  -19.1341724,  -46.1939774,          55.
    213,  -23.5698376,  -44.0960617,          55.
    214,   -27.778511,  -41.5734825,          55.
    215,  -31.7196636,  -38.6505241,          55.
    216,  -35.3553391,  -35.3553391,          55.
    217,  -38.6505241,  -31.7196636,          55.
    218,  -41.5734825,   -27.778511,          55.
    219,  -44.0960617,  -23.5698376,          55.
    220,  -46.1939774,  -19.1341724,          55.
    221,  -47.8470154,  -14.5142336,          55.
    222,  -49.0392647,  -9.75451565,          55.
    223,  -49.7592354,  -4.90085697,          55.
    224,         -50.,           0.,          55.
    225,  -49.7592354,   4.90085697,          55.
    226,  -49.0392647,   9.75451565,          55.
    227,  -47.8470154,   14.5142336,          55.
    228,  -46.1939774,   19.1341724,          55.
    229,  -44.0960617,   23.5698376,          55.
    230,  -41.5734825,    27.778511,          55.
    231,  -38.6505241,   31.7196636,          55.
    232,  -35.3553391,   35.3553391,          55.
    233,  -31.7196636,   38.6505241,          55.
    234,   -27.778511,   41.5734825,          55.
    235,  -23.5698376,   44.0960617,          55.
    236,  -19.1341724,   46.1939774,          55.
    237,  -14.5142336,   47.8470154,          55.
    238,  -9.75451565,   49.0392647,          55.
    239,  -4.90085697,   49.7592354,          55.
    240,           0.,          50.,          55.
    241,   4.90085697,   49.7592354,          55.
    242,   9.75451565,   49.0392647,          55.
    243,   14.5142336,   47.8470154,          55.
    244,   19.1341724,   46.1939774,          55.
    245,   23.5698376,   44.0960617,          55.
    246,    27.778511,   41.5734825,          55.
    247,   31.7196636,   38.6505241,          55.
    248,   35.3553391,   35.3553391,          55.
    249,   38.6505241,   31.7196636,          55.
    250,   41.5734825,    27.778511,          55.
    251,   44.0960617,   23.5698376,          55.
    252,   46.1939774,   19.1341724,          55.
    253,   47.8470154,   14.5142336,          55.
    254,   49.0392647,   9.75451565,          55.
    255,   49.7592354,   4.90085697,          55.
    256,          50.,           0.,          55.
    257,   49.7592354,  -4.90085697,          50.
    258,   49.0392647,  -9.75451565,          50.
    259,   47.8470154,  -14.5142336,          50.
    260,   46.1939774,  -19.1341724,          50.
    261,   44.0960617,  -23.5698376,          50.
    262,   41.5734825,   -27.778511,          50.
    263,   38.6505241,  -31.7196636,          50.
    264,   35.3553391,  -35.3553391,          50.
    265,   31.7196636,  -38.6505241,          50.
    266,    27.778511,  -41.5734825,          50.
    267,   23.5698376,  -44.0960617,          50.
    268,   19.1341724,  -46.1939774,          50.
    269,   14.5142336,  -47.8470154,          50.
    270,   9.75451565,  -49.0392647,          50.
    271,   4.90085697,  -49.7592354,          50.
    272,           0.,         -50.,          50.
    273,  -4.90085697,  -49.7592354,          50.
    274,  -9.75451565,  -49.0392647,          50.
    275,  -14.5142336,  -47.8470154,          50.
    276,  -19.1341724,  -46.1939774,          50.
    277,  -23.5698376,  -44.0960617,          50.
    278,   -27.778511,  -41.5734825,          50.
    279,  -31.7196636,  -38.6505241,          50.
    280,  -35.3553391,  -35.3553391,          50.
    281,  -38.6505241,  -31.7196636,          50.
    282,  -41.5734825,   -27.778511,          50.
    283,  -44.0960617,  -23.5698376,          50.
    284,  -46.1939774,  -19.1341724,          50.
    285,  -47.8470154,  -14.5142336,          50.
    286,  -49.0392647,  -9.75451565,          50.
    287,  -49.7592354,  -4.90085697,          50.
    288,         -50.,           0.,          50.
    289,  -49.7592354,   4.90085697,          50.
    290,  -49.0392647,   9.75451565,          50.
    291,  -47.8470154,   14.5142336,          50.
    292,  -46.1939774,   19.1341724,          50.
    293,  -44.0960617,   23.5698376,          50.
    294,  -41.5734825,    27.778511,          50.
    295,  -38.6505241,   31.7196636,          50.
    296,  -35.3553391,   35.3553391,          50.
    297,  -31.7196636,   38.6505241,          50.
    298,   -27.778511,   41.5734825,          50.
    299,  -23.5698376,   44.0960617,          50.
    300,  -19.1341724,   46.1939774,          50.
    301,  -14.5142336,   47.8470154,          50.
    302,  -9.75451565,   49.0392647,          50.
    303,  -4.90085697,   49.7592354,          50.
    304,           0.,          50.,          50.
    305,   4.90085697,   49.7592354,          50.
    306,   9.75451565,   49.0392647,          50.
    307,   14.5142336,   47.8470154,          50.
    308,   19.1341724,   46.1939774,          50.
    309,   23.5698376,   44.0960617,          50.
    310,    27.778511,   41.5734825,          50.
    311,   31.7196636,   38.6505241,          50.
    312,   35.3553391,   35.3553391,          50.
    313,   38.6505241,   31.7196636,          50.
    314,   41.5734825,    27.778511,          50.
    315,   44.0960617,   23.5698376,          50.
    316,   46.1939774,   19.1341724,          50.
    317,   47.8470154,   14.5142336,          50.
    318,   49.0392647,   9.75451565,          50.
    319,   49.7592354,   4.90085697,          50.
    320,          50.,           0.,          50.
    321,   49.7592354,  -4.90085697,          45.
    322,   49.0392647,  -9.75451565,          45.
    323,   47.8470154,  -14.5142336,          45.
    324,   46.1939774,  -19.1341724,          45.
    325,   44.0960617,  -23.5698376,          45.
    326,   41.5734825,   -27.778511,          45.
    327,   38.6505241,  -31.7196636,          45.
    328,   35.3553391,  -35.3553391,          45.
    329,   31.7196636,  -38.6505241,          45.
    330,    27.778511,  -41.5734825,          45.
    331,   23.5698376,  -44.0960617,          45.
    332,   19.1341724,  -46.1939774,          45.
    333,   14.5142336,  -47.8470154,          45.
    334,   9.75451565,  -49.0392647,          45.
    335,   4.90085697,  -49.7592354,          45.
    336,           0.,         -50.,          45.
    337,  -4.90085697,  -49.7592354,          45.
    338,  -9.75451565,  -49.0392647,          45.
    339,  -14.5142336,  -47.8470154,          45.
    340,  -19.1341724,  -46.1939774,          45.
    341,  -23.5698376,  -44.0960617,          45.
    342,   -27.778511,  -41.5734825,          45.
    343,  -31.7196636,  -38.6505241,          45.
    344,  -35.3553391,  -35.3553391,          45.
    345,  -38.6505241,  -31.7196636,          45.
    346,  -41.5734825,   -27.778511,          45.
    347,  -44.0960617,  -23.5698376,          45.
    348,  -46.1939774,  -19.1341724,          45.
    349,  -47.8470154,  -14.5142336,          45.
    350,  -49.0392647,  -9.75451565,          45.
    351,  -49.7592354,  -4.90085697,          45.
    352,         -50.,           0.,          45.
    353,  -49.7592354,   4.90085697,          45.
    354,  -49.0392647,   9.75451565,          45.
    355,  -47.8470154,   14.5142336,          45.
    356,  -46.1939774,   19.1341724,          45.
    357,  -44.0960617,   23.5698376,          45.
    358,  -41.5734825,    27.778511,          45.
    359,  -38.6505241,   31.7196636,          45.
    360,  -35.3553391,   35.3553391,          45.
    361,  -31.7196636,   38.6505241,          45.
    362,   -27.778511,   41.5734825,          45.
    363,  -23.5698376,   44.0960617,          45.
    364,  -19.1341724,   46.1939774,          45.
    365,  -14.5142336,   47.8470154,          45.
    366,  -9.75451565,   49.0392647,          45.
    367,  -4.90085697,   49.7592354,          45.
    368,           0.,          50.,          45.
    369,   4.90085697,   49.7592354,          45.
    370,   9.75451565,   49.0392647,          45.
    371,   14.5142336,   47.8470154,          45.
    372,   19.1341724,   46.1939774,          45.
    373,   23.5698376,   44.0960617,          45.
    374,    27.778511,   41.5734825,          45.
    375,   31.7196636,   38.6505241,          45.
    376,   35.3553391,   35.3553391,          45.
    377,   38.6505241,   31.7196636,          45.
    378,   41.5734825,    27.778511,          45.
    379,   44.0960617,   23.5698376,          45.
    380,   46.1939774,   19.1341724,          45.
    381,   47.8470154,   14.5142336,          45.
    382,   49.0392647,   9.75451565,          45.
    383,   49.7592354,   4.90085697,          45.
    384,          50.,           0.,          45.
    385,   49.7592354,  -4.90085697,          40.
    386,   49.0392647,  -9.75451565,          40.
    387,   47.8470154,  -14.5142336,          40.
    388,   46.1939774,  -19.1341724,          40.
    389,   44.0960617,  -23.5698376,          40.
    390,   41.5734825,   -27.778511,          40.
    391,   38.6505241,  -31.7196636,          40.
    392,   35.3553391,  -35.3553391,          40.
    393,   31.7196636,  -38.6505241,          40.
    394,    27.778511,  -41.5734825,          40.
    395,   23.5698376,  -44.0960617,          40.
    396,   19.1341724,  -46.1939774,          40.
    397,   14.5142336,  -47.8470154,          40.
    398,   9.75451565,  -49.0392647,          40.
    399,   4.90085697,  -49.7592354,          40.
    400,           0.,         -50.,          40.
    401,  -4.90085697,  -49.7592354,          40.
    402,  -9.75451565,  -49.0392647,          40.
    403,  -14.5142336,  -47.8470154,          40.
    404,  -19.1341724,  -46.1939774,          40.
    405,  -23.5698376,  -44.0960617,          40.
    406,   -27.778511,  -41.5734825,          40.
    407,  -31.7196636,  -38.6505241,          40.
    408,  -35.3553391,  -35.3553391,          40.
    409,  -38.6505241,  -31.7196636,          40.
    410,  -41.5734825,   -27.778511,          40.
    411,  -44.0960617,  -23.5698376,          40.
    412,  -46.1939774,  -19.1341724,          40.
    413,  -47.8470154,  -14.5142336,          40.
    414,  -49.0392647,  -9.75451565,          40.
    415,  -49.7592354,  -4.90085697,          40.
    416,         -50.,           0.,          40.
    417,  -49.7592354,   4.90085697,          40.
    418,  -49.0392647,   9.75451565,          40.
    419,  -47.8470154,   14.5142336,          40.
    420,  -46.1939774,   19.1341724,          40.
    421,  -44.0960617,   23.5698376,          40.
    422,  -41.5734825,    27.778511,          40.
    423,  -38.6505241,   31.7196636,          40.
    424,  -35.3553391,   35.3553391,          40.
    425,  -31.7196636,   38.6505241,          40.
    426,   -27.778511,   41.5734825,          40.
    427,  -23.5698376,   44.0960617,          40.
    428,  -19.1341724,   46.1939774,          40.
    429,  -14.5142336,   47.8470154,          40.
    430,  -9.75451565,   49.0392647,          40.
    431,  -4.90085697,   49.7592354,          40.
    432,           0.,          50.,          40.
    433,   4.90085697,   49.7592354,          40.
    434,   9.75451565,   49.0392647,          40.
    435,   14.5142336,   47.8470154,          40.
    436,   19.1341724,   46.1939774,          40.
    437,   23.5698376,   44.0960617,          40.
    438,    27.778511,   41.5734825,          40.
    439,   31.7196636,   38.6505241,          40.
    440,   35.3553391,   35.3553391,          40.
    441,   38.6505241,   31.7196636,          40.
    442,   41.5734825,    27.778511,          40.
    443,   44.0960617,   23.5698376,          40.
    444,   46.1939774,   19.1341724,          40.
    445,   47.8470154,   14.5142336,          40.
    446,   49.0392647,   9.75451565,          40.
    447,   49.7592354,   4.90085697,          40.
    448,          50.,           0.,          40.
    449,   49.7592354,  -4.90085697,          35.
    450,   49.0392647,  -9.75451565,          35.
    451,   47.8470154,  -14.5142336,          35.
    452,   46.1939774,  -19.1341724,          35.
    453,   44.0960617,  -23.5698376,          35.
    454,   41.5734825,   -27.778511,          35.
    455,   38.6505241,  -31.7196636,          35.
    456,   35.3553391,  -35.3553391,          35.
    457,   31.7196636,  -38.6505241,          35.
    458,    27.778511,  -41.5734825,          35.
    459,   23.5698376,  -44.0960617,          35.
    460,   19.1341724,  -46.1939774,          35.
    461,   14.5142336,  -47.8470154,          35.
    462,   9.75451565,  -49.0392647,          35.
    463,   4.90085697,  -49.7592354,          35.
    464,           0.,         -50.,          35.
    465,  -4.90085697,  -49.7592354,          35.
    466,  -9.75451565,  -49.0392647,          35.
    467,  -14.5142336,  -47.8470154,          35.
    468,  -19.1341724,  -46.1939774,          35.
    469,  -23.5698376,  -44.0960617,          35.
    470,   -27.778511,  -41.5734825,          35.
    471,  -31.7196636,  -38.6505241,          35.
    472,  -35.3553391,  -35.3553391,          35.
    473,  -38.6505241,  -31.7196636,          35.
    474,  -41.5734825,   -27.778511,          35.
    475,  -44.0960617,  -23.5698376,          35.
    476,  -46.1939774,  -19.1341724,          35.
    477,  -47.8470154,  -14.5142336,          35.
    478,  -49.0392647,  -9.75451565,          35.
    479,  -49.7592354,  -4.90085697,          35.
    480,         -50.,           0.,          35.
    481,  -49.7592354,   4.90085697,          35.
    482,  -49.0392647,   9.75451565,          35.
    483,  -47.8470154,   14.5142336,          35.
    484,  -46.1939774,   19.1341724,          35.
    485,  -44.0960617,   23.5698376,          35.
    486,  -41.5734825,    27.778511,          35.
    487,  -38.6505241,   31.7196636,          35.
    488,  -35.3553391,   35.3553391,          35.
    489,  -31.7196636,   38.6505241,          35.
    490,   -27.778511,   41.5734825,          35.
    491,  -23.5698376,   44.0960617,          35.
    492,  -19.1341724,   46.1939774,          35.
    493,  -14.5142336,   47.8470154,          35.
    494,  -9.75451565,   49.0392647,          35.
    495,  -4.90085697,   49.7592354,          35.
    496,           0.,          50.,          35.
    497,   4.90085697,   49.7592354,          35.
    498,   9.75451565,   49.0392647,          35.
    499,   14.5142336,   47.8470154,          35.
    500,   19.1341724,   46.1939774,          35.
    501,   23.5698376,   44.0960617,          35.
    502,    27.778511,   41.5734825,          35.
    503,   31.7196636,   38.6505241,          35.
    504,   35.3553391,   35.3553391,          35.
    505,   38.6505241,   31.7196636,          35.
    506,   41.5734825,    27.778511,          35.
    507,   44.0960617,   23.5698376,          35.
    508,   46.1939774,   19.1341724,          35.
    509,   47.8470154,   14.5142336,          35.
    510,   49.0392647,   9.75451565,          35.
    511,   49.7592354,   4.90085697,          35.
    512,          50.,           0.,          35.
    513,   49.7592354,  -4.90085697,          30.
    514,   49.0392647,  -9.75451565,          30.
    515,   47.8470154,  -14.5142336,          30.
    516,   46.1939774,  -19.1341724,          30.
    517,   44.0960617,  -23.5698376,          30.
    518,   41.5734825,   -27.778511,          30.
    519,   38.6505241,  -31.7196636,          30.
    520,   35.3553391,  -35.3553391,          30.
    521,   31.7196636,  -38.6505241,          30.
    522,    27.778511,  -41.5734825,          30.
    523,   23.5698376,  -44.0960617,          30.
    524,   19.1341724,  -46.1939774,          30.
    525,   14.5142336,  -47.8470154,          30.
    526,   9.75451565,  -49.0392647,          30.
    527,   4.90085697,  -49.7592354,          30.
    528,           0.,         -50.,          30.
    529,  -4.90085697,  -49.7592354,          30.
    530,  -9.75451565,  -49.0392647,          30.
    531,  -14.5142336,  -47.8470154,          30.
    532,  -19.1341724,  -46.1939774,          30.
    533,  -23.5698376,  -44.0960617,          30.
    534,   -27.778511,  -41.5734825,          30.
    535,  -31.7196636,  -38.6505241,          30.
    536,  -35.3553391,  -35.3553391,          30.
    537,  -38.6505241,  -31.7196636,          30.
    538,  -41.5734825,   -27.778511,          30.
    539,  -44.0960617,  -23.5698376,          30.
    540,  -46.1939774,  -19.1341724,          30.
    541,  -47.8470154,  -14.5142336,          30.
    542,  -49.0392647,  -9.75451565,          30.
    543,  -49.7592354,  -4.90085697,          30.
    544,         -50.,           0.,          30.
    545,  -49.7592354,   4.90085697,          30.
    546,  -49.0392647,   9.75451565,          30.
    547,  -47.8470154,   14.5142336,          30.
    548,  -46.1939774,   19.1341724,          30.
    549,  -44.0960617,   23.5698376,          30.
    550,  -41.5734825,    27.778511,          30.
    551,  -38.6505241,   31.7196636,          30.
    552,  -35.3553391,   35.3553391,          30.
    553,  -31.7196636,   38.6505241,          30.
    554,   -27.778511,   41.5734825,          30.
    555,  -23.5698376,   44.0960617,          30.
    556,  -19.1341724,   46.1939774,          30.
    557,  -14.5142336,   47.8470154,          30.
    558,  -9.75451565,   49.0392647,          30.
    559,  -4.90085697,   49.7592354,          30.
    560,           0.,          50.,          30.
    561,   4.90085697,   49.7592354,          30.
    562,   9.75451565,   49.0392647,          30.
    563,   14.5142336,   47.8470154,          30.
    564,   19.1341724,   46.1939774,          30.
    565,   23.5698376,   44.0960617,          30.
    566,    27.778511,   41.5734825,          30.
    567,   31.7196636,   38.6505241,          30.
    568,   35.3553391,   35.3553391,          30.
    569,   38.6505241,   31.7196636,          30.
    570,   41.5734825,    27.778511,          30.
    571,   44.0960617,   23.5698376,          30.
    572,   46.1939774,   19.1341724,          30.
    573,   47.8470154,   14.5142336,          30.
    574,   49.0392647,   9.75451565,          30.
    575,   49.7592354,   4.90085697,          30.
    576,          50.,           0.,          30.
    577,   49.7592354,  -4.90085697,          25.
    578,   49.0392647,  -9.75451565,          25.
    579,   47.8470154,  -14.5142336,          25.
    580,   46.1939774,  -19.1341724,          25.
    581,   44.0960617,  -23.5698376,          25.
    582,   41.5734825,   -27.778511,          25.
    583,   38.6505241,  -31.7196636,          25.
    584,   35.3553391,  -35.3553391,          25.
    585,   31.7196636,  -38.6505241,          25.
    586,    27.778511,  -41.5734825,          25.
    587,   23.5698376,  -44.0960617,          25.
    588,   19.1341724,  -46.1939774,          25.
    589,   14.5142336,  -47.8470154,          25.
    590,   9.75451565,  -49.0392647,          25.
    591,   4.90085697,  -49.7592354,          25.
    592,           0.,         -50.,          25.
    593,  -4.90085697,  -49.7592354,          25.
    594,  -9.75451565,  -49.0392647,          25.
    595,  -14.5142336,  -47.8470154,          25.
    596,  -19.1341724,  -46.1939774,          25.
    597,  -23.5698376,  -44.0960617,          25.
    598,   -27.778511,  -41.5734825,          25.
    599,  -31.7196636,  -38.6505241,          25.
    600,  -35.3553391,  -35.3553391,          25.
    601,  -38.6505241,  -31.7196636,          25.
    602,  -41.5734825,   -27.778511,          25.
    603,  -44.0960617,  -23.5698376,          25.
    604,  -46.1939774,  -19.1341724,          25.
    605,  -47.8470154,  -14.5142336,          25.
    606,  -49.0392647,  -9.75451565,          25.
    607,  -49.7592354,  -4.90085697,          25.
    608,         -50.,           0.,          25.
    609,  -49.7592354,   4.90085697,          25.
    610,  -49.0392647,   9.75451565,          25.
    611,  -47.8470154,   14.5142336,          25.
    612,  -46.1939774,   19.1341724,          25.
    613,  -44.0960617,   23.5698376,          25.
    614,  -41.5734825,    27.778511,          25.
    615,  -38.6505241,   31.7196636,          25.
    616,  -35.3553391,   35.3553391,          25.
    617,  -31.7196636,   38.6505241,          25.
    618,   -27.778511,   41.5734825,          25.
    619,  -23.5698376,   44.0960617,          25.
    620,  -19.1341724,   46.1939774,          25.
    621,  -14.5142336,   47.8470154,          25.
    622,  -9.75451565,   49.0392647,          25.
    623,  -4.90085697,   49.7592354,          25.
    624,           0.,          50.,          25.
    625,   4.90085697,   49.7592354,          25.
    626,   9.75451565,   49.0392647,          25.
    627,   14.5142336,   47.8470154,          25.
    628,   19.1341724,   46.1939774,          25.
    629,   23.5698376,   44.0960617,          25.
    630,    27.778511,   41.5734825,          25.
    631,   31.7196636,   38.6505241,          25.
    632,   35.3553391,   35.3553391,          25.
    633,   38.6505241,   31.7196636,          25.
    634,   41.5734825,    27.778511,          25.
    635,   44.0960617,   23.5698376,          25.
    636,   46.1939774,   19.1341724,          25.
    637,   47.8470154,   14.5142336,          25.
    638,   49.0392647,   9.75451565,          25.
    639,   49.7592354,   4.90085697,          25.
    640,          50.,           0.,          25.
    641,   49.7592354,  -4.90085697,          20.
    642,   49.0392647,  -9.75451565,          20.
    643,   47.8470154,  -14.5142336,          20.
    644,   46.1939774,  -19.1341724,          20.
    645,   44.0960617,  -23.5698376,          20.
    646,   41.5734825,   -27.778511,          20.
    647,   38.6505241,  -31.7196636,          20.
    648,   35.3553391,  -35.3553391,          20.
    649,   31.7196636,  -38.6505241,          20.
    650,    27.778511,  -41.5734825,          20.
    651,   23.5698376,  -44.0960617,          20.
    652,   19.1341724,  -46.1939774,          20.
    653,   14.5142336,  -47.8470154,          20.
    654,   9.75451565,  -49.0392647,          20.
    655,   4.90085697,  -49.7592354,          20.
    656,           0.,         -50.,          20.
    657,  -4.90085697,  -49.7592354,          20.
    658,  -9.75451565,  -49.0392647,          20.
    659,  -14.5142336,  -47.8470154,          20.
    660,  -19.1341724,  -46.1939774,          20.
    661,  -23.5698376,  -44.0960617,          20.
    662,   -27.778511,  -41.5734825,          20.
    663,  -31.7196636,  -38.6505241,          20.
    664,  -35.3553391,  -35.3553391,          20.
    665,  -38.6505241,  -31.7196636,          20.
    666,  -41.5734825,   -27.778511,          20.
    667,  -44.0960617,  -23.5698376,          20.
    668,  -46.1939774,  -19.1341724,          20.
    669,  -47.8470154,  -14.5142336,          20.
    670,  -49.0392647,  -9.75451565,          20.
    671,  -49.7592354,  -4.90085697,          20.
    672,         -50.,           0.,          20.
    673,  -49.7592354,   4.90085697,          20.
    674,  -49.0392647,   9.75451565,          20.
    675,  -47.8470154,   14.5142336,          20.
    676,  -46.1939774,   19.1341724,          20.
    677,  -44.0960617,   23.5698376,          20.
    678,  -41.5734825,    27.778511,          20.
    679,  -38.6505241,   31.7196636,          20.
    680,  -35.3553391,   35.3553391,          20.
    681,  -31.7196636,   38.6505241,          20.
    682,   -27.778511,   41.5734825,          20.
    683,  -23.5698376,   44.0960617,          20.
    684,  -19.1341724,   46.1939774,          20.
    685,  -14.5142336,   47.8470154,          20.
    686,  -9.75451565,   49.0392647,          20.
    687,  -4.90085697,   49.7592354,          20.
    688,           0.,          50.,          20.
    689,   4.90085697,   49.7592354,          20.
    690,   9.75451565,   49.0392647,          20.
    691,   14.5142336,   47.8470154,          20.
    692,   19.1341724,   46.1939774,          20.
    693,   23.5698376,   44.0960617,          20.
    694,    27.778511,   41.5734825,          20.
    695,   31.7196636,   38.6505241,          20.
    696,   35.3553391,   35.3553391,          20.
    697,   38.6505241,   31.7196636,          20.
    698,   41.5734825,    27.778511,          20.
    699,   44.0960617,   23.5698376,          20.
    700,   46.1939774,   19.1341724,          20.
    701,   47.8470154,   14.5142336,          20.
    702,   49.0392647,   9.75451565,          20.
    703,   49.7592354,   4.90085697,          20.
    704,          50.,           0.,          20.
    705,   49.7592354,  -4.90085697,          15.
    706,   49.0392647,  -9.75451565,          15.
    707,   47.8470154,  -14.5142336,          15.
    708,   46.1939774,  -19.1341724,          15.
    709,   44.0960617,  -23.5698376,          15.
    710,   41.5734825,   -27.778511,          15.
    711,   38.6505241,  -31.7196636,          15.
    712,   35.3553391,  -35.3553391,          15.
    713,   31.7196636,  -38.6505241,          15.
    714,    27.778511,  -41.5734825,          15.
    715,   23.5698376,  -44.0960617,          15.
    716,   19.1341724,  -46.1939774,          15.
    717,   14.5142336,  -47.8470154,          15.
    718,   9.75451565,  -49.0392647,          15.
    719,   4.90085697,  -49.7592354,          15.
    720,           0.,         -50.,          15.
    721,  -4.90085697,  -49.7592354,          15.
    722,  -9.75451565,  -49.0392647,          15.
    723,  -14.5142336,  -47.8470154,          15.
    724,  -19.1341724,  -46.1939774,          15.
    725,  -23.5698376,  -44.0960617,          15.
    726,   -27.778511,  -41.5734825,          15.
    727,  -31.7196636,  -38.6505241,          15.
    728,  -35.3553391,  -35.3553391,          15.
    729,  -38.6505241,  -31.7196636,          15.
    730,  -41.5734825,   -27.778511,          15.
    731,  -44.0960617,  -23.5698376,          15.
    732,  -46.1939774,  -19.1341724,          15.
    733,  -47.8470154,  -14.5142336,          15.
    734,  -49.0392647,  -9.75451565,          15.
    735,  -49.7592354,  -4.90085697,          15.
    736,         -50.,           0.,          15.
    737,  -49.7592354,   4.90085697,          15.
    738,  -49.0392647,   9.75451565,          15.
    739,  -47.8470154,   14.5142336,          15.
    740,  -46.1939774,   19.1341724,          15.
    741,  -44.0960617,   23.5698376,          15.
    742,  -41.5734825,    27.778511,          15.
    743,  -38.6505241,   31.7196636,          15.
    744,  -35.3553391,   35.3553391,          15.
    745,  -31.7196636,   38.6505241,          15.
    746,   -27.778511,   41.5734825,          15.
    747,  -23.5698376,   44.0960617,          15.
    748,  -19.1341724,   46.1939774,          15.
    749,  -14.5142336,   47.8470154,          15.
    750,  -9.75451565,   49.0392647,          15.
    751,  -4.90085697,   49.7592354,          15.
    752,           0.,          50.,          15.
    753,   4.90085697,   49.7592354,          15.
    754,   9.75451565,   49.0392647,          15.
    755,   14.5142336,   47.8470154,          15.
    756,   19.1341724,   46.1939774,          15.
    757,   23.5698376,   44.0960617,          15.
    758,    27.778511,   41.5734825,          15.
    759,   31.7196636,   38.6505241,          15.
    760,   35.3553391,   35.3553391,          15.
    761,   38.6505241,   31.7196636,          15.
    762,   41.5734825,    27.778511,          15.
    763,   44.0960617,   23.5698376,          15.
    764,   46.1939774,   19.1341724,          15.
    765,   47.8470154,   14.5142336,          15.
    766,   49.0392647,   9.75451565,          15.
    767,   49.7592354,   4.90085697,          15.
    768,          50.,           0.,          15.
    769,   49.7592354,  -4.90085697,          10.
    770,   49.0392647,  -9.75451565,          10.
    771,   47.8470154,  -14.5142336,          10.
    772,   46.1939774,  -19.1341724,          10.
    773,   44.0960617,  -23.5698376,          10.
    774,   41.5734825,   -27.778511,          10.
    775,   38.6505241,  -31.7196636,          10.
    776,   35.3553391,  -35.3553391,          10.
    777,   31.7196636,  -38.6505241,          10.
    778,    27.778511,  -41.5734825,          10.
    779,   23.5698376,  -44.0960617,          10.
    780,   19.1341724,  -46.1939774,          10.
    781,   14.5142336,  -47.8470154,          10.
    782,   9.75451565,  -49.0392647,          10.
    783,   4.90085697,  -49.7592354,          10.
    784,           0.,         -50.,          10.
    785,  -4.90085697,  -49.7592354,          10.
    786,  -9.75451565,  -49.0392647,          10.
    787,  -14.5142336,  -47.8470154,          10.
    788,  -19.1341724,  -46.1939774,          10.
    789,  -23.5698376,  -44.0960617,          10.
    790,   -27.778511,  -41.5734825,          10.
    791,  -31.7196636,  -38.6505241,          10.
    792,  -35.3553391,  -35.3553391,          10.
    793,  -38.6505241,  -31.7196636,          10.
    794,  -41.5734825,   -27.778511,          10.
    795,  -44.0960617,  -23.5698376,          10.
    796,  -46.1939774,  -19.1341724,          10.
    797,  -47.8470154,  -14.5142336,          10.
    798,  -49.0392647,  -9.75451565,          10.
    799,  -49.7592354,  -4.90085697,          10.
    800,         -50.,           0.,          10.
    801,  -49.7592354,   4.90085697,          10.
    802,  -49.0392647,   9.75451565,          10.
    803,  -47.8470154,   14.5142336,          10.
    804,  -46.1939774,   19.1341724,          10.
    805,  -44.0960617,   23.5698376,          10.
    806,  -41.5734825,    27.778511,          10.
    807,  -38.6505241,   31.7196636,          10.
    808,  -35.3553391,   35.3553391,          10.
    809,  -31.7196636,   38.6505241,          10.
    810,   -27.778511,   41.5734825,          10.
    811,  -23.5698376,   44.0960617,          10.
    812,  -19.1341724,   46.1939774,          10.
    813,  -14.5142336,   47.8470154,          10.
    814,  -9.75451565,   49.0392647,          10.
    815,  -4.90085697,   49.7592354,          10.
    816,           0.,          50.,          10.
    817,   4.90085697,   49.7592354,          10.
    818,   9.75451565,   49.0392647,          10.
    819,   14.5142336,   47.8470154,          10.
    820,   19.1341724,   46.1939774,          10.
    821,   23.5698376,   44.0960617,          10.
    822,    27.778511,   41.5734825,          10.
    823,   31.7196636,   38.6505241,          10.
    824,   35.3553391,   35.3553391,          10.
    825,   38.6505241,   31.7196636,          10.
    826,   41.5734825,    27.778511,          10.
    827,   44.0960617,   23.5698376,          10.
    828,   46.1939774,   19.1341724,          10.
    829,   47.8470154,   14.5142336,          10.
    830,   49.0392647,   9.75451565,          10.
    831,   49.7592354,   4.90085697,          10.
    832,          50.,           0.,          10.
    833,   49.7592354,  -4.90085697,           5.
    834,   49.0392647,  -9.75451565,           5.
    835,   47.8470154,  -14.5142336,           5.
    836,   46.1939774,  -19.1341724,           5.
    837,   44.0960617,  -23.5698376,           5.
    838,   41.5734825,   -27.778511,           5.
    839,   38.6505241,  -31.7196636,           5.
    840,   35.3553391,  -35.3553391,           5.
    841,   31.7196636,  -38.6505241,           5.
    842,    27.778511,  -41.5734825,           5.
    843,   23.5698376,  -44.0960617,           5.
    844,   19.1341724,  -46.1939774,           5.
    845,   14.5142336,  -47.8470154,           5.
    846,   9.75451565,  -49.0392647,           5.
    847,   4.90085697,  -49.7592354,           5.
    848,           0.,         -50.,           5.
    849,  -4.90085697,  -49.7592354,           5.
    850,  -9.75451565,  -49.0392647,           5.
    851,  -14.5142336,  -47.8470154,           5.
    852,  -19.1341724,  -46.1939774,           5.
    853,  -23.5698376,  -44.0960617,           5.
    854,   -27.778511,  -41.5734825,           5.
    855,  -31.7196636,  -38.6505241,           5.
    856,  -35.3553391,  -35.3553391,           5.
    857,  -38.6505241,  -31.7196636,           5.
    858,  -41.5734825,   -27.778511,           5.
    859,  -44.0960617,  -23.5698376,           5.
    860,  -46.1939774,  -19.1341724,           5.
    861,  -47.8470154,  -14.5142336,           5.
    862,  -49.0392647,  -9.75451565,           5.
    863,  -49.7592354,  -4.90085697,           5.
    864,         -50.,           0.,           5.
    865,  -49.7592354,   4.90085697,           5.
    866,  -49.0392647,   9.75451565,           5.
    867,  -47.8470154,   14.5142336,           5.
    868,  -46.1939774,   19.1341724,           5.
    869,  -44.0960617,   23.5698376,           5.
    870,  -41.5734825,    27.778511,           5.
    871,  -38.6505241,   31.7196636,           5.
    872,  -35.3553391,   35.3553391,           5.
    873,  -31.7196636,   38.6505241,           5.
    874,   -27.778511,   41.5734825,           5.
    875,  -23.5698376,   44.0960617,           5.
    876,  -19.1341724,   46.1939774,           5.
    877,  -14.5142336,   47.8470154,           5.
    878,  -9.75451565,   49.0392647,           5.
    879,  -4.90085697,   49.7592354,           5.
    880,           0.,          50.,           5.
    881,   4.90085697,   49.7592354,           5.
    882,   9.75451565,   49.0392647,           5.
    883,   14.5142336,   47.8470154,           5.
    884,   19.1341724,   46.1939774,           5.
    885,   23.5698376,   44.0960617,           5.
    886,    27.778511,   41.5734825,           5.
    887,   31.7196636,   38.6505241,           5.
    888,   35.3553391,   35.3553391,           5.
    889,   38.6505241,   31.7196636,           5.
    890,   41.5734825,    27.778511,           5.
    891,   44.0960617,   23.5698376,           5.
    892,   46.1939774,   19.1341724,           5.
    893,   47.8470154,   14.5142336,           5.
    894,   49.0392647,   9.75451565,           5.
    895,   49.7592354,   4.90085697,           5.
    896,          50.,           0.,           5.
    897,   49.7592354,  -4.90085697,           0.
    898,   49.0392647,  -9.75451565,           0.
    899,   47.8470154,  -14.5142336,           0.
    900,   46.1939774,  -19.1341724,           0.
    901,   44.0960617,  -23.5698376,           0.
    902,   41.5734825,   -27.778511,           0.
    903,   38.6505241,  -31.7196636,           0.
    904,   35.3553391,  -35.3553391,           0.
    905,   31.7196636,  -38.6505241,           0.
    906,    27.778511,  -41.5734825,           0.
    907,   23.5698376,  -44.0960617,           0.
    908,   19.1341724,  -46.1939774,           0.
    909,   14.5142336,  -47.8470154,           0.
    910,   9.75451565,  -49.0392647,           0.
    911,   4.90085697,  -49.7592354,           0.
    912,           0.,         -50.,           0.
    913,  -4.90085697,  -49.7592354,           0.
    914,  -9.75451565,  -49.0392647,           0.
    915,  -14.5142336,  -47.8470154,           0.
    916,  -19.1341724,  -46.1939774,           0.
    917,  -23.5698376,  -44.0960617,           0.
    918,   -27.778511,  -41.5734825,           0.
    919,  -31.7196636,  -38.6505241,           0.
    920,  -35.3553391,  -35.3553391,           0.
    921,  -38.6505241,  -31.7196636,           0.
    922,  -41.5734825,   -27.778511,           0.
    923,  -44.0960617,  -23.5698376,           0.
    924,  -46.1939774,  -19.1341724,           0.
    925,  -47.8470154,  -14.5142336,           0.
    926,  -49.0392647,  -9.75451565,           0.
    927,  -49.7592354,  -4.90085697,           0.
    928,         -50.,           0.,           0.
    929,  -49.7592354,   4.90085697,           0.
    930,  -49.0392647,   9.75451565,           0.
    931,  -47.8470154,   14.5142336,           0.
    932,  -46.1939774,   19.1341724,           0.
    933,  -44.0960617,   23.5698376,           0.
    934,  -41.5734825,    27.778511,           0.
    935,  -38.6505241,   31.7196636,           0.
    936,  -35.3553391,   35.3553391,           0.
    937,  -31.7196636,   38.6505241,           0.
    938,   -27.778511,   41.5734825,           0.
    939,  -23.5698376,   44.0960617,           0.
    940,  -19.1341724,   46.1939774,           0.
    941,  -14.5142336,   47.8470154,           0.
    942,  -9.75451565,   49.0392647,           0.
    943,  -4.90085697,   49.7592354,           0.
    944,           0.,          50.,           0.
    945,   4.90085697,   49.7592354,           0.
    946,   9.75451565,   49.0392647,           0.
    947,   14.5142336,   47.8470154,           0.
    948,   19.1341724,   46.1939774,           0.
    949,   23.5698376,   44.0960617,           0.
    950,    27.778511,   41.5734825,           0.
    951,   31.7196636,   38.6505241,           0.
    952,   35.3553391,   35.3553391,           0.
    953,   38.6505241,   31.7196636,           0.
    954,   41.5734825,    27.778511,           0.
    955,   44.0960617,   23.5698376,           0.
    956,   46.1939774,   19.1341724,           0.
    957,   47.8470154,   14.5142336,           0.
    958,   49.0392647,   9.75451565,           0.
    959,   49.7592354,   4.90085697,           0.
    960,          50.,           0.,           0.
*Element, type=R3D4
  1,  64,   1,  65, 128
  2,   1,   2,  66,  65
  3,   2,   3,  67,  66
  4,   3,   4,  68,  67
  5,   4,   5,  69,  68
  6,   5,   6,  70,  69
  7,   6,   7,  71,  70
  8,   7,   8,  72,  71
  9,   8,   9,  73,  72
 10,   9,  10,  74,  73
 11,  10,  11,  75,  74
 12,  11,  12,  76,  75
 13,  12,  13,  77,  76
 14,  13,  14,  78,  77
 15,  14,  15,  79,  78
 16,  15,  16,  80,  79
 17,  16,  17,  81,  80
 18,  17,  18,  82,  81
 19,  18,  19,  83,  82
 20,  19,  20,  84,  83
 21,  20,  21,  85,  84
 22,  21,  22,  86,  85
 23,  22,  23,  87,  86
 24,  23,  24,  88,  87
 25,  24,  25,  89,  88
 26,  25,  26,  90,  89
 27,  26,  27,  91,  90
 28,  27,  28,  92,  91
 29,  28,  29,  93,  92
 30,  29,  30,  94,  93
 31,  30,  31,  95,  94
 32,  31,  32,  96,  95
 33,  32,  33,  97,  96
 34,  33,  34,  98,  97
 35,  34,  35,  99,  98
 36,  35,  36, 100,  99
 37,  36,  37, 101, 100
 38,  37,  38, 102, 101
 39,  38,  39, 103, 102
 40,  39,  40, 104, 103
 41,  40,  41, 105, 104
 42,  41,  42, 106, 105
 43,  42,  43, 107, 106
 44,  43,  44, 108, 107
 45,  44,  45, 109, 108
 46,  45,  46, 110, 109
 47,  46,  47, 111, 110
 48,  47,  48, 112, 111
 49,  48,  49, 113, 112
 50,  49,  50, 114, 113
 51,  50,  51, 115, 114
 52,  51,  52, 116, 115
 53,  52,  53, 117, 116
 54,  53,  54, 118, 117
 55,  54,  55, 119, 118
 56,  55,  56, 120, 119
 57,  56,  57, 121, 120
 58,  57,  58, 122, 121
 59,  58,  59, 123, 122
 60,  59,  60, 124, 123
 61,  60,  61, 125, 124
 62,  61,  62, 126, 125
 63,  62,  63, 127, 126
 64,  63,  64, 128, 127
 65, 128,  65, 129, 192
 66,  65,  66, 130, 129
 67,  66,  67, 131, 130
 68,  67,  68, 132, 131
 69,  68,  69, 133, 132
 70,  69,  70, 134, 133
 71,  70,  71, 135, 134
 72,  71,  72, 136, 135
 73,  72,  73, 137, 136
 74,  73,  74, 138, 137
 75,  74,  75, 139, 138
 76,  75,  76, 140, 139
 77,  76,  77, 141, 140
 78,  77,  78, 142, 141
 79,  78,  79, 143, 142
 80,  79,  80, 144, 143
 81,  80,  81, 145, 144
 82,  81,  82, 146, 145
 83,  82,  83, 147, 146
 84,  83,  84, 148, 147
 85,  84,  85, 149, 148
 86,  85,  86, 150, 149
 87,  86,  87, 151, 150
 88,  87,  88, 152, 151
 89,  88,  89, 153, 152
 90,  89,  90, 154, 153
 91,  90,  91, 155, 154
 92,  91,  92, 156, 155
 93,  92,  93, 157, 156
 94,  93,  94, 158, 157
 95,  94,  95, 159, 158
 96,  95,  96, 160, 159
 97,  96,  97, 161, 160
 98,  97,  98, 162, 161
 99,  98,  99, 163, 162
100,  99, 100, 164, 163
101, 100, 101, 165, 164
102, 101, 102, 166, 165
103, 102, 103, 167, 166
104, 103, 104, 168, 167
105, 104, 105, 169, 168
106, 105, 106, 170, 169
107, 106, 107, 171, 170
108, 107, 108, 172, 171
109, 108, 109, 173, 172
110, 109, 110, 174, 173
111, 110, 111, 175, 174
112, 111, 112, 176, 175
113, 112, 113, 177, 176
114, 113, 114, 178, 177
115, 114, 115, 179, 178
116, 115, 116, 180, 179
117, 116, 117, 181, 180
118, 117, 118, 182, 181
119, 118, 119, 183, 182
120, 119, 120, 184, 183
121, 120, 121, 185, 184
122, 121, 122, 186, 185
123, 122, 123, 187, 186
124, 123, 124, 188, 187
125, 124, 125, 189, 188
126, 125, 126, 190, 189
127, 126, 127, 191, 190
128, 127, 128, 192, 191
129, 192, 129, 193, 256
130, 129, 130, 194, 193
131, 130, 131, 195, 194
132, 131, 132, 196, 195
133, 132, 133, 197, 196
134, 133, 134, 198, 197
135, 134, 135, 199, 198
136, 135, 136, 200, 199
137, 136, 137, 201, 200
138, 137, 138, 202, 201
139, 138, 139, 203, 202
140, 139, 140, 204, 203
141, 140, 141, 205, 204
142, 141, 142, 206, 205
143, 142, 143, 207, 206
144, 143, 144, 208, 207
145, 144, 145, 209, 208
146, 145, 146, 210, 209
147, 146, 147, 211, 210
148, 147, 148, 212, 211
149, 148, 149, 213, 212
150, 149, 150, 214, 213
151, 150, 151, 215, 214
152, 151, 152, 216, 215
153, 152, 153, 217, 216
154, 153, 154, 218, 217
155, 154, 155, 219, 218
156, 155, 156, 220, 219
157, 156, 157, 221, 220
158, 157, 158, 222, 221
159, 158, 159, 223, 222
160, 159, 160, 224, 223
161, 160, 161, 225, 224
162, 161, 162, 226, 225
163, 162, 163, 227, 226
164, 163, 164, 228, 227
165, 164, 165, 229, 228
166, 165, 166, 230, 229
167, 166, 167, 231, 230
168, 167, 168, 232, 231
169, 168, 169, 233, 232
170, 169, 170, 234, 233
171, 170, 171, 235, 234
172, 171, 172, 236, 235
173, 172, 173, 237, 236
174, 173, 174, 238, 237
175, 174, 175, 239, 238
176, 175, 176, 240, 239
177, 176, 177, 241, 240
178, 177, 178, 242, 241
179, 178, 179, 243, 242
180, 179, 180, 244, 243
181, 180, 181, 245, 244
182, 181, 182, 246, 245
183, 182, 183, 247, 246
184, 183, 184, 248, 247
185, 184, 185, 249, 248
186, 185, 186, 250, 249
187, 186, 187, 251, 250
188, 187, 188, 252, 251
189, 188, 189, 253, 252
190, 189, 190, 254, 253
191, 190, 191, 255, 254
192, 191, 192, 256, 255
193, 256, 193, 257, 320
194, 193, 194, 258, 257
195, 194, 195, 259, 258
196, 195, 196, 260, 259
197, 196, 197, 261, 260
198, 197, 198, 262, 261
199, 198, 199, 263, 262
200, 199, 200, 264, 263
201, 200, 201, 265, 264
202, 201, 202, 266, 265
203, 202, 203, 267, 266
204, 203, 204, 268, 267
205, 204, 205, 269, 268
206, 205, 206, 270, 269
207, 206, 207, 271, 270
208, 207, 208, 272, 271
209, 208, 209, 273, 272
210, 209, 210, 274, 273
211, 210, 211, 275, 274
212, 211, 212, 276, 275
213, 212, 213, 277, 276
214, 213, 214, 278, 277
215, 214, 215, 279, 278
216, 215, 216, 280, 279
217, 216, 217, 281, 280
218, 217, 218, 282, 281
219, 218, 219, 283, 282
220, 219, 220, 284, 283
221, 220, 221, 285, 284
222, 221, 222, 286, 285
223, 222, 223, 287, 286
224, 223, 224, 288, 287
225, 224, 225, 289, 288
226, 225, 226, 290, 289
227, 226, 227, 291, 290
228, 227, 228, 292, 291
229, 228, 229, 293, 292
230, 229, 230, 294, 293
231, 230, 231, 295, 294
232, 231, 232, 296, 295
233, 232, 233, 297, 296
234, 233, 234, 298, 297
235, 234, 235, 299, 298
236, 235, 236, 300, 299
237, 236, 237, 301, 300
238, 237, 238, 302, 301
239, 238, 239, 303, 302
240, 239, 240, 304, 303
241, 240, 241, 305, 304
242, 241, 242, 306, 305
243, 242, 243, 307, 306
244, 243, 244, 308, 307
245, 244, 245, 309, 308
246, 245, 246, 310, 309
247, 246, 247, 311, 310
248, 247, 248, 312, 311
249, 248, 249, 313, 312
250, 249, 250, 314, 313
251, 250, 251, 315, 314
252, 251, 252, 316, 315
253, 252, 253, 317, 316
254, 253, 254, 318, 317
255, 254, 255, 319, 318
256, 255, 256, 320, 319
257, 320, 257, 321, 384
258, 257, 258, 322, 321
259, 258, 259, 323, 322
260, 259, 260, 324, 323
261, 260, 261, 325, 324
262, 261, 262, 326, 325
263, 262, 263, 327, 326
264, 263, 264, 328, 327
265, 264, 265, 329, 328
266, 265, 266, 330, 329
267, 266, 267, 331, 330
268, 267, 268, 332, 331
269, 268, 269, 333, 332
270, 269, 270, 334, 333
271, 270, 271, 335, 334
272, 271, 272, 336, 335
273, 272, 273, 337, 336
274, 273, 274, 338, 337
275, 274, 275, 339, 338
276, 275, 276, 340, 339
277, 276, 277, 341, 340
278, 277, 278, 342, 341
279, 278, 279, 343, 342
280, 279, 280, 344, 343
281, 280, 281, 345, 344
282, 281, 282, 346, 345
283, 282, 283, 347, 346
284, 283, 284, 348, 347
285, 284, 285, 349, 348
286, 285, 286, 350, 349
287, 286, 287, 351, 350
288, 287, 288, 352, 351
289, 288, 289, 353, 352
290, 289, 290, 354, 353
291, 290, 291, 355, 354
292, 291, 292, 356, 355
293, 292, 293, 357, 356
294, 293, 294, 358, 357
295, 294, 295, 359, 358
296, 295, 296, 360, 359
297, 296, 297, 361, 360
298, 297, 298, 362, 361
299, 298, 299, 363, 362
300, 299, 300, 364, 363
301, 300, 301, 365, 364
302, 301, 302, 366, 365
303, 302, 303, 367, 366
304, 303, 304, 368, 367
305, 304, 305, 369, 368
306, 305, 306, 370, 369
307, 306, 307, 371, 370
308, 307, 308, 372, 371
309, 308, 309, 373, 372
310, 309, 310, 374, 373
311, 310, 311, 375, 374
312, 311, 312, 376, 375
313, 312, 313, 377, 376
314, 313, 314, 378, 377
315, 314, 315, 379, 378
316, 315, 316, 380, 379
317, 316, 317, 381, 380
318, 317, 318, 382, 381
319, 318, 319, 383, 382
320, 319, 320, 384, 383
321, 384, 321, 385, 448
322, 321, 322, 386, 385
323, 322, 323, 387, 386
324, 323, 324, 388, 387
325, 324, 325, 389, 388
326, 325, 326, 390, 389
327, 326, 327, 391, 390
328, 327, 328, 392, 391
329, 328, 329, 393, 392
330, 329, 330, 394, 393
331, 330, 331, 395, 394
332, 331, 332, 396, 395
333, 332, 333, 397, 396
334, 333, 334, 398, 397
335, 334, 335, 399, 398
336, 335, 336, 400, 399
337, 336, 337, 401, 400
338, 337, 338, 402, 401
339, 338, 339, 403, 402
340, 339, 340, 404, 403
341, 340, 341, 405, 404
342, 341, 342, 406, 405
343, 342, 343, 407, 406
344, 343, 344, 408, 407
345, 344, 345, 409, 408
346, 345, 346, 410, 409
347, 346, 347, 411, 410
348, 347, 348, 412, 411
349, 348, 349, 413, 412
350, 349, 350, 414, 413
351, 350, 351, 415, 414
352, 351, 352, 416, 415
353, 352, 353, 417, 416
354, 353, 354, 418, 417
355, 354, 355, 419, 418
356, 355, 356, 420, 419
357, 356, 357, 421, 420
358, 357, 358, 422, 421
359, 358, 359, 423, 422
360, 359, 360, 424, 423
361, 360, 361, 425, 424
362, 361, 362, 426, 425
363, 362, 363, 427, 426
364, 363, 364, 428, 427
365, 364, 365, 429, 428
366, 365, 366, 430, 429
367, 366, 367, 431, 430
368, 367, 368, 432, 431
369, 368, 369, 433, 432
370, 369, 370, 434, 433
371, 370, 371, 435, 434
372, 371, 372, 436, 435
373, 372, 373, 437, 436
374, 373, 374, 438, 437
375, 374, 375, 439, 438
376, 375, 376, 440, 439
377, 376, 377, 441, 440
378, 377, 378, 442, 441
379, 378, 379, 443, 442
380, 379, 380, 444, 443
381, 380, 381, 445, 444
382, 381, 382, 446, 445
383, 382, 383, 447, 446
384, 383, 384, 448, 447
385, 448, 385, 449, 512
386, 385, 386, 450, 449
387, 386, 387, 451, 450
388, 387, 388, 452, 451
389, 388, 389, 453, 452
390, 389, 390, 454, 453
391, 390, 391, 455, 454
392, 391, 392, 456, 455
393, 392, 393, 457, 456
394, 393, 394, 458, 457
395, 394, 395, 459, 458
396, 395, 396, 460, 459
397, 396, 397, 461, 460
398, 397, 398, 462, 461
399, 398, 399, 463, 462
400, 399, 400, 464, 463
401, 400, 401, 465, 464
402, 401, 402, 466, 465
403, 402, 403, 467, 466
404, 403, 404, 468, 467
405, 404, 405, 469, 468
406, 405, 406, 470, 469
407, 406, 407, 471, 470
408, 407, 408, 472, 471
409, 408, 409, 473, 472
410, 409, 410, 474, 473
411, 410, 411, 475, 474
412, 411, 412, 476, 475
413, 412, 413, 477, 476
414, 413, 414, 478, 477
415, 414, 415, 479, 478
416, 415, 416, 480, 479
417, 416, 417, 481, 480
418, 417, 418, 482, 481
419, 418, 419, 483, 482
420, 419, 420, 484, 483
421, 420, 421, 485, 484
422, 421, 422, 486, 485
423, 422, 423, 487, 486
424, 423, 424, 488, 487
425, 424, 425, 489, 488
426, 425, 426, 490, 489
427, 426, 427, 491, 490
428, 427, 428, 492, 491
429, 428, 429, 493, 492
430, 429, 430, 494, 493
431, 430, 431, 495, 494
432, 431, 432, 496, 495
433, 432, 433, 497, 496
434, 433, 434, 498, 497
435, 434, 435, 499, 498
436, 435, 436, 500, 499
437, 436, 437, 501, 500
438, 437, 438, 502, 501
439, 438, 439, 503, 502
440, 439, 440, 504, 503
441, 440, 441, 505, 504
442, 441, 442, 506, 505
443, 442, 443, 507, 506
444, 443, 444, 508, 507
445, 444, 445, 509, 508
446, 445, 446, 510, 509
447, 446, 447, 511, 510
448, 447, 448, 512, 511
449, 512, 449, 513, 576
450, 449, 450, 514, 513
451, 450, 451, 515, 514
452, 451, 452, 516, 515
453, 452, 453, 517, 516
454, 453, 454, 518, 517
455, 454, 455, 519, 518
456, 455, 456, 520, 519
457, 456, 457, 521, 520
458, 457, 458, 522, 521
459, 458, 459, 523, 522
460, 459, 460, 524, 523
461, 460, 461, 525, 524
462, 461, 462, 526, 525
463, 462, 463, 527, 526
464, 463, 464, 528, 527
465, 464, 465, 529, 528
466, 465, 466, 530, 529
467, 466, 467, 531, 530
468, 467, 468, 532, 531
469, 468, 469, 533, 532
470, 469, 470, 534, 533
471, 470, 471, 535, 534
472, 471, 472, 536, 535
473, 472, 473, 537, 536
474, 473, 474, 538, 537
475, 474, 475, 539, 538
476, 475, 476, 540, 539
477, 476, 477, 541, 540
478, 477, 478, 542, 541
479, 478, 479, 543, 542
480, 479, 480, 544, 543
481, 480, 481, 545, 544
482, 481, 482, 546, 545
483, 482, 483, 547, 546
484, 483, 484, 548, 547
485, 484, 485, 549, 548
486, 485, 486, 550, 549
487, 486, 487, 551, 550
488, 487, 488, 552, 551
489, 488, 489, 553, 552
490, 489, 490, 554, 553
491, 490, 491, 555, 554
492, 491, 492, 556, 555
493, 492, 493, 557, 556
494, 493, 494, 558, 557
495, 494, 495, 559, 558
496, 495, 496, 560, 559
497, 496, 497, 561, 560
498, 497, 498, 562, 561
499, 498, 499, 563, 562
500, 499, 500, 564, 563
501, 500, 501, 565, 564
502, 501, 502, 566, 565
503, 502, 503, 567, 566
504, 503, 504, 568, 567
505, 504, 505, 569, 568
506, 505, 506, 570, 569
507, 506, 507, 571, 570
508, 507, 508, 572, 571
509, 508, 509, 573, 572
510, 509, 510, 574, 573
511, 510, 511, 575, 574
512, 511, 512, 576, 575
513, 576, 513, 577, 640
514, 513, 514, 578, 577
515, 514, 515, 579, 578
516, 515, 516, 580, 579
517, 516, 517, 581, 580
518, 517, 518, 582, 581
519, 518, 519, 583, 582
520, 519, 520, 584, 583
521, 520, 521, 585, 584
522, 521, 522, 586, 585
523, 522, 523, 587, 586
524, 523, 524, 588, 587
525, 524, 525, 589, 588
526, 525, 526, 590, 589
527, 526, 527, 591, 590
528, 527, 528, 592, 591
529, 528, 529, 593, 592
530, 529, 530, 594, 593
531, 530, 531, 595, 594
532, 531, 532, 596, 595
533, 532, 533, 597, 596
534, 533, 534, 598, 597
535, 534, 535, 599, 598
536, 535, 536, 600, 599
537, 536, 537, 601, 600
538, 537, 538, 602, 601
539, 538, 539, 603, 602
540, 539, 540, 604, 603
541, 540, 541, 605, 604
542, 541, 542, 606, 605
543, 542, 543, 607, 606
544, 543, 544, 608, 607
545, 544, 545, 609, 608
546, 545, 546, 610, 609
547, 546, 547, 611, 610
548, 547, 548, 612, 611
549, 548, 549, 613, 612
550, 549, 550, 614, 613
551, 550, 551, 615, 614
552, 551, 552, 616, 615
553, 552, 553, 617, 616
554, 553, 554, 618, 617
555, 554, 555, 619, 618
556, 555, 556, 620, 619
557, 556, 557, 621, 620
558, 557, 558, 622, 621
559, 558, 559, 623, 622
560, 559, 560, 624, 623
561, 560, 561, 625, 624
562, 561, 562, 626, 625
563, 562, 563, 627, 626
564, 563, 564, 628, 627
565, 564, 565, 629, 628
566, 565, 566, 630, 629
567, 566, 567, 631, 630
568, 567, 568, 632, 631
569, 568, 569, 633, 632
570, 569, 570, 634, 633
571, 570, 571, 635, 634
572, 571, 572, 636, 635
573, 572, 573, 637, 636
574, 573, 574, 638, 637
575, 574, 575, 639, 638
576, 575, 576, 640, 639
577, 640, 577, 641, 704
578, 577, 578, 642, 641
579, 578, 579, 643, 642
580, 579, 580, 644, 643
581, 580, 581, 645, 644
582, 581, 582, 646, 645
583, 582, 583, 647, 646
584, 583, 584, 648, 647
585, 584, 585, 649, 648
586, 585, 586, 650, 649
587, 586, 587, 651, 650
588, 587, 588, 652, 651
589, 588, 589, 653, 652
590, 589, 590, 654, 653
591, 590, 591, 655, 654
592, 591, 592, 656, 655
593, 592, 593, 657, 656
594, 593, 594, 658, 657
595, 594, 595, 659, 658
596, 595, 596, 660, 659
597, 596, 597, 661, 660
598, 597, 598, 662, 661
599, 598, 599, 663, 662
600, 599, 600, 664, 663
601, 600, 601, 665, 664
602, 601, 602, 666, 665
603, 602, 603, 667, 666
604, 603, 604, 668, 667
605, 604, 605, 669, 668
606, 605, 606, 670, 669
607, 606, 607, 671, 670
608, 607, 608, 672, 671
609, 608, 609, 673, 672
610, 609, 610, 674, 673
611, 610, 611, 675, 674
612, 611, 612, 676, 675
613, 612, 613, 677, 676
614, 613, 614, 678, 677
615, 614, 615, 679, 678
616, 615, 616, 680, 679
617, 616, 617, 681, 680
618, 617, 618, 682, 681
619, 618, 619, 683, 682
620, 619, 620, 684, 683
621, 620, 621, 685, 684
622, 621, 622, 686, 685
623, 622, 623, 687, 686
624, 623, 624, 688, 687
625, 624, 625, 689, 688
626, 625, 626, 690, 689
627, 626, 627, 691, 690
628, 627, 628, 692, 691
629, 628, 629, 693, 692
630, 629, 630, 694, 693
631, 630, 631, 695, 694
632, 631, 632, 696, 695
633, 632, 633, 697, 696
634, 633, 634, 698, 697
635, 634, 635, 699, 698
636, 635, 636, 700, 699
637, 636, 637, 701, 700
638, 637, 638, 702, 701
639, 638, 639, 703, 702
640, 639, 640, 704, 703
641, 704, 641, 705, 768
642, 641, 642, 706, 705
643, 642, 643, 707, 706
644, 643, 644, 708, 707
645, 644, 645, 709, 708
646, 645, 646, 710, 709
647, 646, 647, 711, 710
648, 647, 648, 712, 711
649, 648, 649, 713, 712
650, 649, 650, 714, 713
651, 650, 651, 715, 714
652, 651, 652, 716, 715
653, 652, 653, 717, 716
654, 653, 654, 718, 717
655, 654, 655, 719, 718
656, 655, 656, 720, 719
657, 656, 657, 721, 720
658, 657, 658, 722, 721
659, 658, 659, 723, 722
660, 659, 660, 724, 723
661, 660, 661, 725, 724
662, 661, 662, 726, 725
663, 662, 663, 727, 726
664, 663, 664, 728, 727
665, 664, 665, 729, 728
666, 665, 666, 730, 729
667, 666, 667, 731, 730
668, 667, 668, 732, 731
669, 668, 669, 733, 732
670, 669, 670, 734, 733
671, 670, 671, 735, 734
672, 671, 672, 736, 735
673, 672, 673, 737, 736
674, 673, 674, 738, 737
675, 674, 675, 739, 738
676, 675, 676, 740, 739
677, 676, 677, 741, 740
678, 677, 678, 742, 741
679, 678, 679, 743, 742
680, 679, 680, 744, 743
681, 680, 681, 745, 744
682, 681, 682, 746, 745
683, 682, 683, 747, 746
684, 683, 684, 748, 747
685, 684, 685, 749, 748
686, 685, 686, 750, 749
687, 686, 687, 751, 750
688, 687, 688, 752, 751
689, 688, 689, 753, 752
690, 689, 690, 754, 753
691, 690, 691, 755, 754
692, 691, 692, 756, 755
693, 692, 693, 757, 756
694, 693, 694, 758, 757
695, 694, 695, 759, 758
696, 695, 696, 760, 759
697, 696, 697, 761, 760
698, 697, 698, 762, 761
699, 698, 699, 763, 762
700, 699, 700, 764, 763
701, 700, 701, 765, 764
702, 701, 702, 766, 765
703, 702, 703, 767, 766
704, 703, 704, 768, 767
705, 768, 705, 769, 832
706, 705, 706, 770, 769
707, 706, 707, 771, 770
708, 707, 708, 772, 771
709, 708, 709, 773, 772
710, 709, 710, 774, 773
711, 710, 711, 775, 774
712, 711, 712, 776, 775
713, 712, 713, 777, 776
714, 713, 714, 778, 777
715, 714, 715, 779, 778
716, 715, 716, 780, 779
717, 716, 717, 781, 780
718, 717, 718, 782, 781
719, 718, 719, 783, 782
720, 719, 720, 784, 783
721, 720, 721, 785, 784
722, 721, 722, 786, 785
723, 722, 723, 787, 786
724, 723, 724, 788, 787
725, 724, 725, 789, 788
726, 725, 726, 790, 789
727, 726, 727, 791, 790
728, 727, 728, 792, 791
729, 728, 729, 793, 792
730, 729, 730, 794, 793
731, 730, 731, 795, 794
732, 731, 732, 796, 795
733, 732, 733, 797, 796
734, 733, 734, 798, 797
735, 734, 735, 799, 798
736, 735, 736, 800, 799
737, 736, 737, 801, 800
738, 737, 738, 802, 801
739, 738, 739, 803, 802
740, 739, 740, 804, 803
741, 740, 741, 805, 804
742, 741, 742, 806, 805
743, 742, 743, 807, 806
744, 743, 744, 808, 807
745, 744, 745, 809, 808
746, 745, 746, 810, 809
747, 746, 747, 811, 810
748, 747, 748, 812, 811
749, 748, 749, 813, 812
750, 749, 750, 814, 813
751, 750, 751, 815, 814
752, 751, 752, 816, 815
753, 752, 753, 817, 816
754, 753, 754, 818, 817
755, 754, 755, 819, 818
756, 755, 756, 820, 819
757, 756, 757, 821, 820
758, 757, 758, 822, 821
759, 758, 759, 823, 822
760, 759, 760, 824, 823
761, 760, 761, 825, 824
762, 761, 762, 826, 825
763, 762, 763, 827, 826
764, 763, 764, 828, 827
765, 764, 765, 829, 828
766, 765, 766, 830, 829
767, 766, 767, 831, 830
768, 767, 768, 832, 831
769, 832, 769, 833, 896
770, 769, 770, 834, 833
771, 770, 771, 835, 834
772, 771, 772, 836, 835
773, 772, 773, 837, 836
774, 773, 774, 838, 837
775, 774, 775, 839, 838
776, 775, 776, 840, 839
777, 776, 777, 841, 840
778, 777, 778, 842, 841
779, 778, 779, 843, 842
780, 779, 780, 844, 843
781, 780, 781, 845, 844
782, 781, 782, 846, 845
783, 782, 783, 847, 846
784, 783, 784, 848, 847
785, 784, 785, 849, 848
786, 785, 786, 850, 849
787, 786, 787, 851, 850
788, 787, 788, 852, 851
789, 788, 789, 853, 852
790, 789, 790, 854, 853
791, 790, 791, 855, 854
792, 791, 792, 856, 855
793, 792, 793, 857, 856
794, 793, 794, 858, 857
795, 794, 795, 859, 858
796, 795, 796, 860, 859
797, 796, 797, 861, 860
798, 797, 798, 862, 861
799, 798, 799, 863, 862
800, 799, 800, 864, 863
801, 800, 801, 865, 864
802, 801, 802, 866, 865
803, 802, 803, 867, 866
804, 803, 804, 868, 867
805, 804, 805, 869, 868
806, 805, 806, 870, 869
807, 806, 807, 871, 870
808, 807, 808, 872, 871
809, 808, 809, 873, 872
810, 809, 810, 874, 873
811, 810, 811, 875, 874
812, 811, 812, 876, 875
813, 812, 813, 877, 876
814, 813, 814, 878, 877
815, 814, 815, 879, 878
816, 815, 816, 880, 879
817, 816, 817, 881, 880
818, 817, 818, 882, 881
819, 818, 819, 883, 882
820, 819, 820, 884, 883
821, 820, 821, 885, 884
822, 821, 822, 886, 885
823, 822, 823, 887, 886
824, 823, 824, 888, 887
825, 824, 825, 889, 888
826, 825, 826, 890, 889
827, 826, 827, 891, 890
828, 827, 828, 892, 891
829, 828, 829, 893, 892
830, 829, 830, 894, 893
831, 830, 831, 895, 894
832, 831, 832, 896, 895
833, 896, 833, 897, 960
834, 833, 834, 898, 897
835, 834, 835, 899, 898
836, 835, 836, 900, 899
837, 836, 837, 901, 900
838, 837, 838, 902, 901
839, 838, 839, 903, 902
840, 839, 840, 904, 903
841, 840, 841, 905, 904
842, 841, 842, 906, 905
843, 842, 843, 907, 906
844, 843, 844, 908, 907
845, 844, 845, 909, 908
846, 845, 846, 910, 909
847, 846, 847, 911, 910
848, 847, 848, 912, 911
849, 848, 849, 913, 912
850, 849, 850, 914, 913
851, 850, 851, 915, 914
852, 851, 852, 916, 915
853, 852, 853, 917, 916
854, 853, 854, 918, 917
855, 854, 855, 919, 918
856, 855, 856, 920, 919
857, 856, 857, 921, 920
858, 857, 858, 922, 921
859, 858, 859, 923, 922
860, 859, 860, 924, 923
861, 860, 861, 925, 924
862, 861, 862, 926, 925
863, 862, 863, 927, 926
864, 863, 864, 928, 927
865, 864, 865, 929, 928
866, 865, 866, 930, 929
867, 866, 867, 931, 930
868, 867, 868, 932, 931
869, 868, 869, 933, 932
870, 869, 870, 934, 933
871, 870, 871, 935, 934
872, 871, 872, 936, 935
873, 872, 873, 937, 936
874, 873, 874, 938, 937
875, 874, 875, 939, 938
876, 875, 876, 940, 939
877, 876, 877, 941, 940
878, 877, 878, 942, 941
879, 878, 879, 943, 942
880, 879, 880, 944, 943
881, 880, 881, 945, 944
882, 881, 882, 946, 945
883, 882, 883, 947, 946
884, 883, 884, 948, 947
885, 884, 885, 949, 948
886, 885, 886, 950, 949
887, 886, 887, 951, 950
888, 887, 888, 952, 951
889, 888, 889, 953, 952
890, 889, 890, 954, 953
891, 890, 891, 955, 954
892, 891, 892, 956, 955
893, 892, 893, 957, 956
894, 893, 894, 958, 957
895, 894, 895, 959, 958
896, 895, 896, 960, 959
*Elset, elset=_ContactFace_SNEG, internal, generate
   1,  896,    1
*Surface, type=ELEMENT, name=ContactFace
_ContactFace_SNEG, SNEG
*End Part
**  
**
** ASSEMBLY
**
*Assembly, name=Assembly
**  
*Instance, name=ActiveLayer-1, part=ActiveLayer
*End Instance
**  
*Instance, name=LowerRoller-1, part=RigidRoller_CylindricalShell
          0.,         -50.,           0.
          0.,         -50.,           0.,           0.,         -49.,           0.,          90.
*End Instance
**  
*Instance, name=UpperRoller-1, part=RigidRoller_CylindricalShell
          0.,        50.15,           0.
          0.,        50.15,           0.,           0.,        51.15,           0.,          90.
*End Instance
**  
*Node
      1,           0.,   50.1500015,           0.
*Node
      2,           0.,         -50.,           0.
*Nset, nset=RP_LowerRoller
 2,
*Nset, nset=RP_UpperRoller
 1,
*Nset, nset=Sheet_All, instance=ActiveLayer-1, generate
    1,  2646,     1
*Elset, elset=Sheet_All, instance=ActiveLayer-1, generate
    1,  2000,     1
*Nset, nset=Sheet_XSymFace, instance=ActiveLayer-1
    5,    6,    7,    8,   13,   14,   15,   16,   17,   18,   37,   38,   39,   40,   41,   42
   43,   44,   45,   46,   47,   48,   49,   50,   51,   52,  149,  150,  151,  152,  153,  154
  155,  156,  157,  158,  159,  160,  161,  162,  163,  164,  165,  166,  167,  168,  253,  254
  255,  256,  257,  258,  259,  260,  261,  262,  263,  264,  265,  266,  267,  268,  331,  332
  333,  334,  335,  336,  337,  338,  339,  340,  341,  342,  343,  344,  345,  346,  675,  676
  677,  678,  679,  680,  681,  682,  683,  684,  685,  686,  687,  688,  689,  690,  691,  692
  693,  694,  695,  696,  697,  698, 1095, 1096, 1097, 1098, 1099, 1100, 1101, 1102, 1103, 1104
 1105, 1106, 1107, 1108, 1109, 1110, 1263, 1264, 1265, 1266, 1267, 1268, 1269, 1270
*Elset, elset=Sheet_XSymFace, instance=ActiveLayer-1
  476,  477,  478,  479,  480,  481,  482,  483,  484,  485,  486,  487,  488,  489,  490,  491
  492,  493,  494,  495,  496,  497,  498,  499,  500, 1166, 1167, 1168, 1169, 1170, 1171, 1172
 1173, 1174, 1175, 1176, 1177, 1178, 1179, 1180, 1181, 1182, 1183, 1184, 1185, 1186, 1187, 1188
 1189, 1190, 1191, 1192, 1193, 1194, 1195, 1196, 1197, 1198, 1199, 1200, 1676, 1677, 1678, 1679
 1680, 1681, 1682, 1683, 1684, 1685, 1686, 1687, 1688, 1689, 1690, 1691, 1692, 1693, 1694, 1695
 1696, 1697, 1698, 1699, 1700, 1701, 1702, 1703, 1704, 1705, 1706, 1707, 1708, 1709, 1710, 1711
 1712, 1713, 1714, 1715
*Nset, nset=Sheet_ZSymFace, instance=ActiveLayer-1
   17,   18,   19,   20,  263,  264,  265,  266,  271,  272,  273,  274,  277,  278,  279,  280
  281,  282,  283,  284,  285,  286,  287,  288,  289,  290,  291,  292,  293,  294,  295,  296
  297,  298,  299,  300,  301,  302,  303,  304,  305,  306,  307,  308,  309,  310,  311,  312
  313,  314, 1355, 1356, 1357, 1358, 1359, 1360, 1361, 1362, 1363, 1364, 1365, 1366, 1367, 1368
 1369, 1370, 1371, 1372, 1373, 1374, 1375, 1376, 1377, 1378, 1379, 1380, 1381, 1382, 1383, 1384
 1385, 1386, 1387, 1388, 1389, 1390, 1391, 1392, 1393, 1394, 1395, 1396, 1397, 1398, 1399, 1400
 1401, 1402, 1403, 1404, 1405, 1406, 1407, 1408, 1409, 1410, 1411, 1412, 1413, 1414, 1415, 1416
 1417, 1418, 1419, 1420, 1421, 1422, 1423, 1424, 1425, 1426, 1427, 1428, 1429, 1430
*Elset, elset=Sheet_ZSymFace, instance=ActiveLayer-1
 1711, 1712, 1713, 1714, 1715, 1726, 1727, 1728, 1729, 1730, 1741, 1742, 1743, 1744, 1745, 1756
 1757, 1758, 1759, 1760, 1771, 1772, 1773, 1774, 1775, 1786, 1787, 1788, 1789, 1790, 1801, 1802
 1803, 1804, 1805, 1816, 1817, 1818, 1819, 1820, 1831, 1832, 1833, 1834, 1835, 1846, 1847, 1848
 1849, 1850, 1861, 1862, 1863, 1864, 1865, 1876, 1877, 1878, 1879, 1880, 1891, 1892, 1893, 1894
 1895, 1906, 1907, 1908, 1909, 1910, 1921, 1922, 1923, 1924, 1925, 1936, 1937, 1938, 1939, 1940
 1951, 1952, 1953, 1954, 1955, 1966, 1967, 1968, 1969, 1970, 1981, 1982, 1983, 1984, 1985, 1996
 1997, 1998, 1999, 2000
*Nset, nset=_PickedSet19, internal, instance=UpperRoller-1, generate
   1,  960,    1
*Elset, elset=_PickedSet19, internal, instance=UpperRoller-1, generate
   1,  896,    1
*Nset, nset=_PickedSet20, internal, instance=LowerRoller-1, generate
   1,  960,    1
*Elset, elset=_PickedSet20, internal, instance=LowerRoller-1, generate
   1,  896,    1
*Elset, elset=_LowerRoller_Contact_SPOS, internal, instance=LowerRoller-1, generate
   1,  896,    1
*Elset, elset=_LowerRoller_Contact_SNEG, internal, instance=LowerRoller-1, generate
   1,  896,    1
*Surface, type=ELEMENT, name=LowerRoller_Contact
_LowerRoller_Contact_SPOS, SPOS
_LowerRoller_Contact_SNEG, SNEG
*Elset, elset=_Sheet_Bottom_S4, internal, instance=ActiveLayer-1, generate
  505,  1700,     5
*Elset, elset=_Sheet_Bottom_S6, internal, instance=ActiveLayer-1
    1,    6,   11,   16,   21,   26,   31,   36,   41,   46,   51,   56,   61,   66,   71,   76
   81,   86,   91,   96,  101,  106,  111,  116,  121,  126,  131,  136,  141,  146,  151,  156
  161,  166,  171,  176,  181,  186,  191,  196,  201,  206,  211,  216,  221,  226,  231,  236
  241,  246,  251,  256,  261,  266,  271,  276,  281,  286,  291,  296,  301,  306,  311,  316
  321,  326,  331,  336,  341,  346,  351,  356,  361,  366,  371,  376,  381,  386,  391,  396
  401,  406,  411,  416,  421,  426,  431,  436,  441,  446,  451,  456,  461,  466,  471,  476
  481,  486,  491,  496, 1701, 1706, 1711, 1716, 1721, 1726, 1731, 1736, 1741, 1746, 1751, 1756
 1761, 1766, 1771, 1776, 1781, 1786, 1791, 1796, 1801, 1806, 1811, 1816, 1821, 1826, 1831, 1836
 1841, 1846, 1851, 1856, 1861, 1866, 1871, 1876, 1881, 1886, 1891, 1896, 1901, 1906, 1911, 1916
 1921, 1926, 1931, 1936, 1941, 1946, 1951, 1956, 1961, 1966, 1971, 1976, 1981, 1986, 1991, 1996
*Surface, type=ELEMENT, name=Sheet_Bottom
_Sheet_Bottom_S4, S4
_Sheet_Bottom_S6, S6
*Elset, elset=_Sheet_Top_S4, internal, instance=ActiveLayer-1
    5,   10,   15,   20,   25,   30,   35,   40,   45,   50,   55,   60,   65,   70,   75,   80
   85,   90,   95,  100,  105,  110,  115,  120,  125,  130,  135,  140,  145,  150,  155,  160
  165,  170,  175,  180,  185,  190,  195,  200,  205,  210,  215,  220,  225,  230,  235,  240
  245,  250,  255,  260,  265,  270,  275,  280,  285,  290,  295,  300,  305,  310,  315,  320
  325,  330,  335,  340,  345,  350,  355,  360,  365,  370,  375,  380,  385,  390,  395,  400
  405,  410,  415,  420,  425,  430,  435,  440,  445,  450,  455,  460,  465,  470,  475,  480
  485,  490,  495,  500, 1705, 1710, 1715, 1720, 1725, 1730, 1735, 1740, 1745, 1750, 1755, 1760
 1765, 1770, 1775, 1780, 1785, 1790, 1795, 1800, 1805, 1810, 1815, 1820, 1825, 1830, 1835, 1840
 1845, 1850, 1855, 1860, 1865, 1870, 1875, 1880, 1885, 1890, 1895, 1900, 1905, 1910, 1915, 1920
 1925, 1930, 1935, 1940, 1945, 1950, 1955, 1960, 1965, 1970, 1975, 1980, 1985, 1990, 1995, 2000
*Elset, elset=_Sheet_Top_S6, internal, instance=ActiveLayer-1, generate
  501,  1696,     5
*Surface, type=ELEMENT, name=Sheet_Top
_Sheet_Top_S4, S4
_Sheet_Top_S6, S6
*Elset, elset=_UpperRoller_Contact_SPOS, internal, instance=UpperRoller-1, generate
   1,  896,    1
*Elset, elset=_UpperRoller_Contact_SNEG, internal, instance=UpperRoller-1, generate
   1,  896,    1
*Surface, type=ELEMENT, name=UpperRoller_Contact
_UpperRoller_Contact_SPOS, SPOS
_UpperRoller_Contact_SNEG, SNEG
** Constraint: Rigid_LowerRoller
*Rigid Body, ref node=RP_LowerRoller, elset=_PickedSet20
** Constraint: Rigid_UpperRoller
*Rigid Body, ref node=RP_UpperRoller, elset=_PickedSet19
*Elset, elset=__GeneralContact_RollerSheet_gcs0_22_SPOS, internal, instance=LowerRoller-1, generate
   1,  896,    1
*Surface, type=ELEMENT, name=_GeneralContact_RollerSheet_gcs0_22, internal
__GeneralContact_RollerSheet_gcs0_22_SPOS, SPOS
*Elset, elset=__GeneralContact_RollerSheet_gcs0_23_SNEG, internal, instance=LowerRoller-1, generate
   1,  896,    1
*Surface, type=ELEMENT, name=_GeneralContact_RollerSheet_gcs0_23, internal
__GeneralContact_RollerSheet_gcs0_23_SNEG, SNEG
*Elset, elset=__GeneralContact_RollerSheet_gcs0_24_SPOS, internal, instance=UpperRoller-1, generate
   1,  896,    1
*Surface, type=ELEMENT, name=_GeneralContact_RollerSheet_gcs0_24, internal
__GeneralContact_RollerSheet_gcs0_24_SPOS, SPOS
*Elset, elset=__GeneralContact_RollerSheet_gcs0_25_SNEG, internal, instance=UpperRoller-1, generate
   1,  896,    1
*Surface, type=ELEMENT, name=_GeneralContact_RollerSheet_gcs0_25, internal
__GeneralContact_RollerSheet_gcs0_25_SNEG, SNEG
*End Assembly
*Amplitude, name=Amp_Upper_Drop, definition=SMOOTH STEP
             0.,              0.,              1.,              1.
** 
** MATERIALS
** 
*Material, name=ActiveLayer_Porous_Calibratable
*Cap Plasticity
 0.0032,    5.,   0.8, 0.048,  0.02,    1.
*Cap Hardening
  0.048,   0.
 0.0496, 0.05
 0.0528,  0.1
 0.0576, 0.15
  0.064, 0.18
  0.072,  0.2
  0.088, 0.22
  0.112, 0.24
  0.152, 0.26
  0.216, 0.28
  0.312,  0.3
  0.384, 0.31
   0.48, 0.32
  0.592, 0.33
*Density
 2.55e-09,
*Elastic
6500., 0.01
** 
** INTERACTION PROPERTIES
** 
*Surface Interaction, name=Contact_Roller_Active_mu0p1
1.,
*Friction, slip tolerance=0.005
 0.1,
*Surface Behavior, pressure-overclosure=HARD
** 
** BOUNDARY CONDITIONS
** 
** Name: BC_Lower_RP_Fixed Type: 位移/转角
*Boundary
RP_LowerRoller, 1, 1
RP_LowerRoller, 2, 2
RP_LowerRoller, 3, 3
RP_LowerRoller, 4, 4
RP_LowerRoller, 5, 5
RP_LowerRoller, 6, 6
** Name: BC_Sheet_XSym Type: 对称/反对称/完全固定
*Boundary
Sheet_XSymFace, XSYMM
** Name: BC_Sheet_ZSym Type: 对称/反对称/完全固定
*Boundary
Sheet_ZSymFace, ZSYMM
** Name: BC_Upper_RP_Guide Type: 位移/转角
*Boundary
RP_UpperRoller, 1, 1
RP_UpperRoller, 3, 3
RP_UpperRoller, 5, 5
RP_UpperRoller, 6, 6
** 
** INTERACTIONS
** 
** Interaction: GeneralContact_RollerSheet
*Contact
*Contact Inclusions, ALL EXTERIOR
*Contact Property Assignment
 ,  , Contact_Roller_Active_mu0p1
*Surface Property Assignment, property=GEOMETRIC CORRECTION
_GeneralContact_RollerSheet_gcs0_22, Circumferential, 0., -50., 0.,  1., -50., 6.12323e-17
_GeneralContact_RollerSheet_gcs0_23, Circumferential, 0., -50., 0.,  1., -50., 6.12323e-17
_GeneralContact_RollerSheet_gcs0_24, Circumferential, 0., 50.15, 0.,  1., 50.15, 6.12323e-17
_GeneralContact_RollerSheet_gcs0_25, Circumferential, 0., 50.15, 0.,  1., 50.15, 6.12323e-17
** ----------------------------------------------------------------
** 
** STEP: Press_Down
** 
*Step, name=Press_Down, nlgeom=YES, inc=10000
*Static, stabilize=0.0002, allsdtol=0, continue=NO
0.001, 1., 1e-12, 0.005
** 
** BOUNDARY CONDITIONS
** 
** Name: BC_Upper_RP_Drop Type: 位移/转角
*Boundary, amplitude=Amp_Upper_Drop
RP_UpperRoller, 2, 2, -0.015
** 
** OUTPUT REQUESTS
** 
*Restart, write, frequency=0
** 
** FIELD OUTPUT: F_Sheet_StressStrainContact
** 
*Output, field, number interval=40, time marks=NO
*Node Output, nset=Sheet_All
RF, U
*Element Output, elset=Sheet_All, directions=YES
LE, PE, PEEQ, S
*Contact Output, nset=Sheet_All
CSTATUS, CSTRESS
** 
** HISTORY OUTPUT: H-Output-1
** 
*Output, history, variable=PRESELECT
** 
** HISTORY OUTPUT: H_LowerRoller_RP
** 
*Output, history, number interval=100, time marks=NO
*Node Output, nset=RP_LowerRoller
RF1, RF2, RF3, RM1, RM2, RM3, U1, U2
U3, UR1
** 
** HISTORY OUTPUT: H_UpperRoller_RP
** 
*Node Output, nset=RP_UpperRoller
RF1, RF2, RF3, RM1, RM2, RM3, U1, U2
U3, UR1
*End Step
